Pd  S Si 
 1.0000000000000000
     3.2709999999999999    0.0000000000000000    0.0000000000000000
    -1.6354999999999993    2.8327690957788989    0.0000000000000000
     0.0000000000000000    0.0000000000000000   25.4780000000000015
 Pd  S   Si 
   6   6   3
Direct
  0.9998300000000000  0.0001700000000000  0.6191000000000000
  0.0001699999999999  0.9998299999999998  0.3809000000000000
  0.6667600000000000  0.3332399999999999  0.9524899999999999
  0.6665900000000000  0.3334099999999999  0.7141300000000000
  0.3334099999999999  0.6665899999999999  0.2858700000000000
  0.3332399999999999  0.6667599999999999  0.0475100000000000
  0.9802999999999999  0.0197000000000000  0.8334500000000000
  0.0196999999999999  0.9802999999999997  0.1665500000000000
  0.6469800000000000  0.3530199999999999  0.1668000000000000
  0.6489000000000000  0.3511000000000000  0.4998700000000000
  0.3510999999999999  0.6488999999999999  0.5001300000000000
  0.3530199999999999  0.6469800000000000  0.8331999999999999
  0.0000000000000000  0.0000000000000000  0.0000000000000000
  0.6666700000000000  0.3333300000000000  0.3333500000000000
  0.3333300000000000  0.6666700000000000  0.6666500000000000
