Cr Ru  S  C 
 1.0000000000000000
     3.3121000000000000    0.0000000000000000    0.0000000000000000
    -1.6560499999999991    2.8683627398744393    0.0000000000000000
     0.0000000000000000    0.0000000000000000    9.0113000000000003
 Cr  Ru  S   C  
   2   2   2   1
Direct
  0.6666700000000001  0.3333400000000000  0.5883500000000000
  0.3333300000000001  0.6666600000000000  0.4116500000000001
  0.6665900000000000  0.3332900000000000  0.8918199999999999
  0.3334100000000000  0.6667100000000000  0.1081800000000000
  0.6666300000000002  0.3333100000000000  0.2946700000000000
  0.3333700000000000  0.6666900000000000  0.7053300000000000
  0.0000000000000000  0.0000000000000000  0.0000000000000000
