Ag Os  C Se
 1.0000000000000000
     3.3029999999999999    0.0000000000000000    0.0000000000000000
    -1.6514999999999993    2.8604819087000011    0.0000000000000000
     0.0000000000000000    0.0000000000000000   25.8299999999999983
 Ag  Os  C   Se
   3   6   3   6
Direct
  0.0000000000000000  0.0000000000000000  0.0000000000000000
  0.6021300000000002  0.3978700000000001  0.3321500000000000
  0.3978700000000000  0.6021300000000001  0.6678500000000001
  0.2314700000000000  0.7685300000000002  0.8725300000000000
  0.7685300000000002  0.2314700000000000  0.1274700000000000
  0.5658000000000000  0.4342000000000000  0.2099100000000000
  0.7322200000000000  0.2677800000000000  0.4608900000000000
  0.2677800000000001  0.7322200000000001  0.5391100000000000
  0.4341999999999999  0.5658000000000000  0.7900900000000002
  0.0000000000000000  0.0000000000000000  0.5000000000000000
  0.7309900000000000  0.2690100000000000  0.8335700000000000
  0.2690099999999999  0.7309900000000000  0.1664300000000000
  0.0992799999999999  0.9007200000000000  0.7430000000000000
  0.9007200000000000  0.0992800000000000  0.2570000000000000
  0.4811800000000000  0.5188199999999999  0.0716700000000000
  0.6809100000000000  0.3190900000000000  0.5923200000000000
  0.3190900000000000  0.6809100000000000  0.4076800000000001
  0.5188199999999999  0.4811800000000000  0.9283300000000000
