 W Se  B 
 1.0000000000000000
     3.2709999999999999    0.0000000000000000    0.0000000000000000
    -1.6354999999999993    2.8327690957788989    0.0000000000000000
     0.0000000000000000    0.0000000000000000   25.4780000000000015
 W   Se  B  
   6   6   3
Direct
  0.9999999999999997  0.9999999999999998  0.6371800000000000
  0.0000000000000000  0.0000000000000000  0.3628200000000000
  0.6666700000000000  0.3333300000000000  0.9705199999999998
  0.6666700000000000  0.3333300000000000  0.6961400000000000
  0.3333300000000000  0.6666700000000000  0.3038600000000000
  0.3333300000000000  0.6666700000000000  0.0294800000000000
  0.9999900000000000  0.0000100000000000  0.7704000000000000
  0.0000100000000000  0.9999899999999999  0.2296000000000000
  0.6666800000000001  0.3333199999999999  0.1037300000000000
  0.6666700000000000  0.3333300000000000  0.5629400000000000
  0.3333300000000000  0.6666700000000000  0.4370599999999999
  0.3333199999999999  0.6666800000000001  0.8962700000000000
  0.0000000000000000  0.0000000000000000  0.0000000000000000
  0.6666700000000000  0.3333300000000000  0.3333300000000000
  0.3333300000000000  0.6666700000000000  0.6666699999999999
