Rh  S Al 
 1.0000000000000000
     3.2690000000000001    0.0000000000000000    0.0000000000000000
    -1.6344999999999994    2.8310370449713305    0.0000000000000000
     0.0000000000000000    0.0000000000000000    8.5470000000000006
 Rh  S   Al 
   2   2   1
Direct
  0.7189500000000000  0.3594700000000000  0.7371600000000000
  0.2810500000000001  0.6405300000000002  0.2628400000000000
  0.9795699999999998  0.9897800000000001  0.3948699999999999
  0.0204300000000000  0.0102200000000000  0.6051299999999999
  0.0000000000000000  0.0000000000000000  0.0000000000000000
