Ca Ni  C Te
 1.0000000000000000
     3.3029999999999999    0.0000000000000000    0.0000000000000000
    -1.6514999999999993    2.8604819087000011    0.0000000000000000
     0.0000000000000000    0.0000000000000000   25.8299999999999983
 Ca  Ni  C   Te
   3   6   3   6
Direct
  0.0000000000000000  0.0000000000000000  0.0000000000000000
  0.6666700000000000  0.3333300000000000  0.3332900000000000
  0.3333300000000000  0.6666700000000000  0.6667100000000000
  0.0000000000000000  0.0000000000000000  0.8699800000000000
  0.0000000000000000  0.0000000000000000  0.1300200000000000
  0.6666700000000000  0.3333300000000000  0.2033100000000000
  0.6666700000000000  0.3333300000000000  0.4633600000000000
  0.3333300000000000  0.6666700000000000  0.5366400000000000
  0.3333300000000000  0.6666700000000000  0.7966900000000000
  0.0000000000000000  0.0000000000000000  0.5000000000000000
  0.6666800000000001  0.3333200000000000  0.8333300000000000
  0.3333200000000000  0.6666800000000001  0.1666700000000000
  0.0000000000000000  0.0000000000000000  0.7313000000000000
  0.0000000000000000  0.0000000000000000  0.2687000000000000
  0.6666700000000000  0.3333300000000000  0.0646500000000000
  0.6666600000000000  0.3333400000000000  0.6020100000000000
  0.3333400000000000  0.6666600000000000  0.3979900000000001
  0.3333300000000000  0.6666700000000000  0.9353500000000000
