Hg Se Sb 
 1.0000000000000000
     3.2709999999999999    0.0000000000000000    0.0000000000000000
    -1.6354999999999993    2.8327690957788989    0.0000000000000000
     0.0000000000000000    0.0000000000000000   25.4780000000000015
 Hg  Se  Sb 
   6   6   3
Direct
  0.9962000000000000  0.0038000000000000  0.5851800000000000
  0.0037999999999999  0.9961999999999999  0.4148200000000000
  0.6700099999999999  0.3299900000000000  0.9143899999999999
  0.6769800000000000  0.3230199999999999  0.7563799999999999
  0.3230199999999999  0.6769799999999999  0.2436200000000000
  0.3299900000000000  0.6700100000000000  0.0856100000000000
  0.0074599999999999  0.9925399999999999  0.8211899999999999
  0.9925400000000000  0.0074600000000000  0.1788100000000000
  0.6618400000000000  0.3381600000000000  0.1532500000000000
  0.6506000000000000  0.3493999999999999  0.5148400000000000
  0.3493999999999999  0.6505999999999998  0.4851600000000000
  0.3381600000000000  0.6618400000000000  0.8467500000000000
  0.0000000000000000  0.0000000000000000  0.0000000000000000
  0.6477200000000000  0.3522800000000000  0.3244700000000000
  0.3522800000000000  0.6477200000000000  0.6755299999999997
