Os Te In 
 1.0000000000000000
     3.2709999999999999    0.0000000000000000    0.0000000000000000
    -1.6354999999999993    2.8327690957788989    0.0000000000000000
     0.0000000000000000    0.0000000000000000   25.4780000000000015
 Os  Te  In 
   6   6   3
Direct
  0.9999999999999997  0.9999999999999998  0.5936000000000000
  0.0000000000000000  0.0000000000000000  0.4063999999999999
  0.6666700000000000  0.3333300000000000  0.9269199999999997
  0.6666700000000000  0.3333300000000000  0.7397399999999998
  0.3333300000000000  0.6666700000000000  0.2602600000000000
  0.3333300000000000  0.6666700000000000  0.0730800000000000
  0.0000000000000000  0.0000000000000000  0.7882899999999998
  0.9999999999999997  0.9999999999999998  0.2117100000000000
  0.6666700000000000  0.3333300000000000  0.1216200000000000
  0.6666700000000000  0.3333300000000000  0.5450400000000000
  0.3333300000000000  0.6666700000000000  0.4549599999999999
  0.3333300000000000  0.6666700000000000  0.8783800000000000
  0.0000000000000000  0.0000000000000000  0.0000000000000000
  0.6666600000000000  0.3333400000000000  0.3333300000000000
  0.3333400000000000  0.6666600000000000  0.6666699999999999
