 V Se Ge 
 1.0000000000000000
     3.2690000000000001    0.0000000000000000    0.0000000000000000
    -1.6344999999999994    2.8310370449713305    0.0000000000000000
     0.0000000000000000    0.0000000000000000    8.5470000000000006
 V   Se  Ge 
   2   2   1
Direct
  0.6666899999999998  0.3333500000000000  0.9112700000000000
  0.3333100000000000  0.6666500000000000  0.0887300000000000
  0.6655500000000000  0.3327800000000001  0.3232900000000000
  0.3344500000000000  0.6672200000000001  0.6767100000000000
  0.0000000000000000  0.0000000000000000  0.0000000000000000
