Ti Bi  S 
 1.0000000000000000
     3.3435999999999999    0.0000000000000000    0.0000000000000000
    -1.6717999999999993    2.8956425400936490    0.0000000000000000
     0.0000000000000000    0.0000000000000000   11.5808999999999997
 Ti  Bi  S  
   4   2   2
Direct
  0.3332899999999999  0.6667099999999999  0.3335600000000000
  0.6667100000000000  0.3332900000000000  0.6664400000000000
  0.6667100000000000  0.3332900000000000  0.8335600000000000
  0.3332899999999999  0.6667099999999999  0.1664400000000000
  0.0000000000000000  0.0000000000000000  0.0000000000000000
  0.0000000000000000  0.0000000000000000  0.5000000000000000
  0.3333700000000000  0.6666299999999999  0.7500000000000000
  0.6666299999999999  0.3333700000000000  0.2500000000000000
