Co  C Se
 1.0000000000000000
     3.3029999999999999    0.0000000000000000    0.0000000000000000
    -1.6514999999999993    2.8604819087000011    0.0000000000000000
     0.0000000000000000    0.0000000000000000   25.8299999999999983
 Co  C   Se
   9   3   6
Direct
  0.0000000000000000  0.0000000000000000  0.0000000000000000
  0.6666600000000000  0.3333400000000000  0.3333300000000001
  0.3333400000000000  0.6666600000000000  0.6666700000000001
  0.0000200000000001  0.9999800000000001  0.8668700000000000
  0.9999800000000000  0.0000200000000000  0.1331300000000000
  0.6667500000000000  0.3332500000000000  0.2002000000000000
  0.6666499999999999  0.3333500000000000  0.4664600000000000
  0.3333499999999999  0.6666500000000000  0.5335400000000000
  0.3332500000000000  0.6667500000000000  0.7998000000000001
  0.0000000000000000  0.0000000000000000  0.5000000000000000
  0.6666999999999998  0.3333000000000000  0.8333300000000000
  0.3332999999999999  0.6667000000000000  0.1666700000000000
  0.0000300000000000  0.9999700000000000  0.7203200000000000
  0.9999699999999998  0.0000300000000000  0.2796800000000000
  0.6666800000000001  0.3333200000000000  0.0536600000000000
  0.6666499999999999  0.3333500000000000  0.6130100000000001
  0.3333499999999999  0.6666500000000000  0.3869900000000000
  0.3333200000000000  0.6666800000000001  0.9463400000000000
