Co Zr  N Se 
 1.0000000000000000
     3.3029999999999999    0.0000000000000000    0.0000000000000000
    -1.6514999999999993    2.8604819087000011    0.0000000000000000
     0.0000000000000000    0.0000000000000000   25.8299999999999983
 Co  Zr  N   Se 
   3   6   3   6
Direct
  0.0000000000000000  0.0000000000000000  0.0000000000000000
  0.6666600000000000  0.3333400000000000  0.3333300000000001
  0.3333400000000000  0.6666600000000000  0.6666700000000001
  0.9999899999999998  0.0000100000000000  0.8613000000000001
  0.0000100000000001  0.9999900000000002  0.1387000000000000
  0.6666700000000000  0.3333300000000000  0.1946000000000000
  0.6666700000000000  0.3333300000000000  0.4720500000000000
  0.3333300000000000  0.6666700000000000  0.5279500000000000
  0.3333300000000000  0.6666700000000000  0.8054000000000000
  0.0000000000000000  0.0000000000000000  0.5000000000000000
  0.6666600000000000  0.3333400000000000  0.8333700000000001
  0.3333400000000000  0.6666600000000000  0.1666300000000000
  0.0000200000000001  0.9999800000000001  0.7185700000000000
  0.9999800000000000  0.0000200000000000  0.2814300000000000
  0.6666700000000000  0.3333300000000000  0.0518900000000000
  0.6666600000000000  0.3333400000000000  0.6147700000000000
  0.3333400000000000  0.6666600000000000  0.3852300000000000
  0.3333300000000000  0.6666700000000000  0.9481100000000000
