Co Cr  C  S
 1.0000000000000000
     3.3029999999999999    0.0000000000000000    0.0000000000000000
    -1.6514999999999991    2.8604819087000011    0.0000000000000000
     0.0000000000000000    0.0000000000000000   25.8299999999999983
 Co  Cr  C   S
   3   6   3   6
Direct
  0.0000000000000000  0.0000000000000000  0.0000000000000000
  0.6666700000000000  0.3333300000000000  0.3333200000000000
  0.3333300000000000  0.6666700000000000  0.6666800000000002
  0.0000000000000000  0.0000000000000000  0.8738500000000000
  0.0000000000000000  0.0000000000000000  0.1261500000000000
  0.6666700000000000  0.3333300000000000  0.2071800000000000
  0.6666600000000000  0.3333400000000000  0.4594800000000000
  0.3333400000000000  0.6666600000000000  0.5405200000000000
  0.3333300000000000  0.6666700000000000  0.7928200000000000
  0.0000000000000000  0.0000000000000000  0.5000000000000000
  0.6666700000000000  0.3333300000000000  0.8333400000000000
  0.3333300000000000  0.6666700000000000  0.1666600000000000
  0.0000300000000000  0.9999700000000000  0.7188700000000000
  0.9999699999999998  0.0000300000000000  0.2811300000000000
  0.6666900000000000  0.3333100000000000  0.0522000000000000
  0.6666400000000000  0.3333600000000000  0.6144600000000000
  0.3333600000000000  0.6666400000000000  0.3855400000000000
  0.3333099999999999  0.6666900000000000  0.9478000000000000
