Os  B  S 
 1.0000000000000000
     3.3435999999999999    0.0000000000000000    0.0000000000000000
    -1.6717999999999993    2.8956425400936490    0.0000000000000000
     0.0000000000000000    0.0000000000000000   11.5808999999999997
 Os  B   S  
   4   2   2
Direct
  0.3119900000000000  0.6880100000000000  0.4113500000000000
  0.6880100000000000  0.3119900000000000  0.5886500000000000
  0.6878699999999998  0.3121300000000000  0.9113900000000001
  0.3121300000000000  0.6878699999999999  0.0886100000000000
  0.0000000000000000  0.0000000000000000  0.0000000000000000
  0.0000000000000000  0.0000000000000000  0.5000000000000000
  0.3087800000000000  0.6912199999999999  0.7498999999999999
  0.6912199999999998  0.3087800000000000  0.2501000000000000
