Sc Se Bi 
 1.0000000000000000
     3.2690000000000001    0.0000000000000000    0.0000000000000000
    -1.6344999999999994    2.8310370449713305    0.0000000000000000
     0.0000000000000000    0.0000000000000000    8.5470000000000006
 Sc  Se  Bi 
   2   2   1
Direct
  0.4856499999999999  0.2428200000000000  0.7421700000000000
  0.5143500000000000  0.7571800000000000  0.2578300000000000
  0.8414399999999995  0.4207200000000000  0.3379400000000000
  0.1585600000000000  0.5792800000000000  0.6620600000000000
  0.0000000000000000  0.0000000000000000  0.0000000000000000
