Co Ti  N Se 
 1.0000000000000000
     3.3029999999999999    0.0000000000000000    0.0000000000000000
    -1.6514999999999991    2.8604819087000011    0.0000000000000000
     0.0000000000000000    0.0000000000000000   25.8299999999999983
 Co  Ti  N   Se 
   3   6   3   6
Direct
  0.0000000000000000  0.0000000000000000  0.0000000000000000
  0.6666600000000000  0.3333400000000000  0.3333300000000001
  0.3333400000000000  0.6666600000000000  0.6666700000000001
  0.9999899999999998  0.0000100000000000  0.8577000000000001
  0.0000100000000001  0.9999900000000002  0.1423000000000000
  0.6666700000000000  0.3333300000000000  0.1909700000000000
  0.6666700000000000  0.3333300000000000  0.4756700000000000
  0.3333300000000000  0.6666700000000000  0.5243300000000000
  0.3333300000000000  0.6666700000000000  0.8090300000000001
  0.0000000000000000  0.0000000000000000  0.5000000000000000
  0.6666600000000000  0.3333400000000000  0.8333800000000000
  0.3333400000000000  0.6666600000000000  0.1666200000000000
  0.0000200000000001  0.9999800000000001  0.7185600000000000
  0.9999800000000000  0.0000200000000000  0.2814400000000000
  0.6666800000000001  0.3333200000000000  0.0518800000000000
  0.6666600000000000  0.3333400000000000  0.6147899999999999
  0.3333400000000000  0.6666600000000000  0.3852100000000000
  0.3333200000000000  0.6666800000000001  0.9481200000000000
