Ti Se In 
 1.0000000000000000
     3.2709999999999999    0.0000000000000000    0.0000000000000000
    -1.6354999999999993    2.8327690957788989    0.0000000000000000
     0.0000000000000000    0.0000000000000000   25.4780000000000015
 Ti  Se  In 
   6   6   3
Direct
  0.9999999999999997  0.9999999999999998  0.5743100000000000
  0.0000000000000000  0.0000000000000000  0.4256900000000000
  0.6666700000000000  0.3333300000000000  0.9076400000000000
  0.6666700000000000  0.3333300000000000  0.7590299999999998
  0.3333300000000000  0.6666700000000000  0.2409699999999999
  0.3333300000000000  0.6666700000000000  0.0923600000000000
  0.9999999999999997  0.9999999999999998  0.7847900000000000
  0.0000000000000000  0.0000000000000000  0.2152100000000000
  0.6666700000000000  0.3333300000000000  0.1181200000000000
  0.6666700000000000  0.3333300000000000  0.5485400000000000
  0.3333300000000000  0.6666700000000000  0.4514600000000000
  0.3333300000000000  0.6666700000000000  0.8818800000000000
  0.0000000000000000  0.0000000000000000  0.0000000000000000
  0.6666700000000000  0.3333300000000000  0.3333300000000000
  0.3333300000000000  0.6666700000000000  0.6666699999999999
