Nb Se  C 
 1.0000000000000000
     3.2709999999999999    0.0000000000000000    0.0000000000000000
    -1.6354999999999991    2.8327690957788989    0.0000000000000000
     0.0000000000000000    0.0000000000000000   25.4780000000000015
 Nb  Se  C  
   6   6   3
Direct
  0.9999999999999997  0.9999999999999998  0.6212800000000001
  0.0000000000000000  0.0000000000000000  0.3787200000000000
  0.6666700000000000  0.3333300000000000  0.9546099999999997
  0.6666700000000000  0.3333300000000000  0.7120499999999998
  0.3333300000000000  0.6666700000000000  0.2879500000000000
  0.3333300000000000  0.6666700000000000  0.0453900000000000
  0.9999999999999997  0.9999999999999998  0.7818800000000000
  0.0000000000000000  0.0000000000000000  0.2181200000000000
  0.6666700000000000  0.3333300000000000  0.1152100000000000
  0.6666700000000000  0.3333300000000000  0.5514600000000000
  0.3333300000000000  0.6666700000000000  0.4485400000000000
  0.3333300000000000  0.6666700000000000  0.8847900000000000
  0.0000000000000000  0.0000000000000000  0.0000000000000000
  0.6666700000000000  0.3333300000000000  0.3333300000000000
  0.3333300000000000  0.6666700000000000  0.6666699999999999
