Cu Se Ge 
 1.0000000000000000
     3.2690000000000001    0.0000000000000000    0.0000000000000000
    -1.6344999999999994    2.8310370449713305    0.0000000000000000
     0.0000000000000000    0.0000000000000000    8.5470000000000006
 Cu  Se  Ge 
   2   2   1
Direct
  0.7172099999999999  0.3586100000000000  0.7777700000000000
  0.2827899999999999  0.6413900000000001  0.2222300000000000
  0.6240399999999998  0.3120200000000000  0.4422300000000000
  0.3759600000000000  0.6879800000000001  0.5577700000000000
  0.0000000000000000  0.0000000000000000  0.0000000000000000
