Au  S Pb 
 1.0000000000000000
     3.2709999999999999    0.0000000000000000    0.0000000000000000
    -1.6354999999999993    2.8327690957788989    0.0000000000000000
     0.0000000000000000    0.0000000000000000   25.4780000000000015
 Au  S   Pb 
   6   6   3
Direct
  0.9919800000000000  0.0080200000000000  0.5730400000000000
  0.0080199999999999  0.9919799999999998  0.4269600000000000
  0.6440700000000000  0.3559299999999999  0.9064300000000000
  0.6550800000000000  0.3449200000000000  0.7603400000000000
  0.3449199999999999  0.6550799999999999  0.2396600000000000
  0.3559300000000000  0.6440700000000000  0.0935700000000000
  0.9990000000000000  0.0010000000000000  0.8331700000000000
  0.0010000000000000  0.9990000000000000  0.1668300000000000
  0.6998199999999999  0.3001799999999999  0.1665000000000000
  0.6843200000000000  0.3156800000000000  0.4999300000000000
  0.3156800000000000  0.6843199999999999  0.5000700000000000
  0.3001799999999999  0.6998199999999999  0.8334999999999999
  0.0000000000000000  0.0000000000000000  0.0000000000000000
  0.7126600000000000  0.2873400000000000  0.3332200000000000
  0.2873399999999999  0.7126599999999997  0.6667799999999999
