Ti  S  B 
 1.0000000000000000
     3.2709999999999999    0.0000000000000000    0.0000000000000000
    -1.6354999999999993    2.8327690957788989    0.0000000000000000
     0.0000000000000000    0.0000000000000000   25.4780000000000015
 Ti  S   B  
   6   6   3
Direct
  0.1161199999999999  0.8838799999999998  0.6075100000000000
  0.8838800000000000  0.1161200000000000  0.3924899999999999
  0.6667000000000000  0.3333000000000000  0.9731800000000000
  0.7604700000000000  0.2395300000000000  0.6591600000000000
  0.2395300000000000  0.7604700000000000  0.3408400000000000
  0.3332999999999999  0.6667000000000000  0.0268200000000000
  0.7892599999999999  0.2107400000000000  0.7513600000000000
  0.2107400000000000  0.7892599999999999  0.2486400000000000
  0.3333600000000000  0.6666399999999999  0.1165000000000000
  0.5885799999999999  0.4114199999999999  0.5618700000000000
  0.4114200000000000  0.5885800000000000  0.4381300000000000
  0.6666399999999999  0.3333600000000000  0.8835000000000000
  0.0000000000000000  0.0000000000000000  0.0000000000000000
  0.5769400000000000  0.4230600000000000  0.3655000000000000
  0.4230599999999999  0.5769399999999999  0.6344999999999998
