Mg Re  N  S 
 1.0000000000000000
     3.3029999999999999    0.0000000000000000    0.0000000000000000
    -1.6514999999999991    2.8604819087000011    0.0000000000000000
     0.0000000000000000    0.0000000000000000   25.8299999999999983
 Mg  Re  N   S  
   3   6   3   6
Direct
  0.0000000000000000  0.0000000000000000  0.0000000000000000
  0.6683900000000000  0.3316100000000000  0.3332600000000000
  0.3316100000000000  0.6683900000000000  0.6667400000000000
  0.0445500000000000  0.9554500000000001  0.8723000000000000
  0.9554499999999999  0.0445500000000000  0.1277000000000000
  0.7105300000000000  0.2894700000000000  0.2056500000000000
  0.6223699999999999  0.3776300000000000  0.4610200000000000
  0.3776299999999999  0.6223700000000000  0.5389800000000000
  0.2894699999999999  0.7105299999999999  0.7943500000000000
  0.0000000000000000  0.0000000000000000  0.5000000000000000
  0.6658699999999999  0.3341300000000000  0.8336100000000000
  0.3341300000000000  0.6658700000000000  0.1663900000000000
  0.9672200000000000  0.0327800000000000  0.7614300000000002
  0.0327800000000000  0.9672200000000001  0.2385700000000000
  0.6338399999999998  0.3661600000000000  0.0945000000000000
  0.6995300000000000  0.3004700000000000  0.5720499999999999
  0.3004700000000000  0.6995300000000000  0.4279500000000000
  0.3661599999999999  0.6338400000000000  0.9055000000000002
