Co Hf  C Te
 1.0000000000000000
     3.3029999999999999    0.0000000000000000    0.0000000000000000
    -1.6514999999999993    2.8604819087000011    0.0000000000000000
     0.0000000000000000    0.0000000000000000   25.8299999999999983
 Co  Hf  C   Te
   3   6   3   6
Direct
  0.0000000000000000  0.0000000000000000  0.0000000000000000
  0.6666600000000000  0.3333400000000000  0.3333300000000001
  0.3333400000000000  0.6666600000000000  0.6666700000000001
  0.9999899999999998  0.0000100000000000  0.8607700000000000
  0.0000100000000001  0.9999900000000002  0.1392300000000000
  0.6666800000000001  0.3333200000000000  0.1941000000000000
  0.6666700000000000  0.3333300000000000  0.4725700000000000
  0.3333300000000000  0.6666700000000000  0.5274300000000000
  0.3333200000000000  0.6666800000000001  0.8059000000000001
  0.0000000000000000  0.0000000000000000  0.5000000000000000
  0.6666600000000000  0.3333400000000000  0.8333300000000000
  0.3333400000000000  0.6666600000000000  0.1666700000000000
  0.0000100000000001  0.9999900000000002  0.7243800000000001
  0.9999899999999998  0.0000100000000000  0.2756200000000000
  0.6666600000000000  0.3333400000000000  0.0577200000000000
  0.6666600000000000  0.3333400000000000  0.6089500000000000
  0.3333400000000000  0.6666600000000000  0.3910500000000001
  0.3333400000000000  0.6666600000000000  0.9422800000000000
