Sc  S Sb 
 1.0000000000000000
     3.2709999999999999    0.0000000000000000    0.0000000000000000
    -1.6354999999999993    2.8327690957788989    0.0000000000000000
     0.0000000000000000    0.0000000000000000   25.4780000000000015
 Sc  S   Sb 
   6   6   3
Direct
  0.0016699999999998  0.9983299999999998  0.5759800000000000
  0.9983300000000001  0.0016700000000000  0.4240199999999999
  0.7664000000000000  0.2336000000000000  0.9090199999999999
  0.7553200000000000  0.2446800000000000  0.7562900000000000
  0.2446799999999998  0.7553199999999998  0.2437100000000000
  0.2336000000000000  0.7664000000000000  0.0909800000000000
  0.0944099999999999  0.9055899999999998  0.7792300000000000
  0.9055899999999999  0.0944100000000000  0.2207700000000000
  0.5683699999999999  0.4316300000000000  0.1148100000000000
  0.6686800000000001  0.3313200000000000  0.5523900000000000
  0.3313200000000000  0.6686800000000001  0.4476100000000000
  0.4316300000000000  0.5683699999999999  0.8851900000000000
  0.0000000000000000  0.0000000000000000  0.0000000000000000
  0.7749500000000000  0.2250500000000000  0.3284000000000000
  0.2250499999999999  0.7749500000000000  0.6715999999999999
