Ni Ru  N Se 
 1.0000000000000000
     3.3029999999999999    0.0000000000000000    0.0000000000000000
    -1.6514999999999993    2.8604819087000011    0.0000000000000000
     0.0000000000000000    0.0000000000000000   25.8299999999999983
 Ni  Ru  N   Se 
   3   6   3   6
Direct
  0.0000000000000000  0.0000000000000000  0.0000000000000000
  0.6666600000000000  0.3333400000000000  0.3333500000000000
  0.3333400000000000  0.6666600000000000  0.6666500000000000
  0.0000600000000000  0.9999400000000002  0.8771000000000001
  0.9999399999999998  0.0000600000000000  0.1229000000000000
  0.6667300000000000  0.3332700000000000  0.2104500000000000
  0.6666700000000000  0.3333300000000000  0.4562300000000001
  0.3333300000000000  0.6666700000000000  0.5437700000000000
  0.3332700000000000  0.6667300000000000  0.7895500000000000
  0.0000000000000000  0.0000000000000000  0.5000000000000000
  0.6666700000000000  0.3333300000000000  0.8334700000000002
  0.3333300000000000  0.6666700000000000  0.1665300000000000
  0.9999699999999998  0.0000300000000000  0.7447900000000000
  0.0000300000000000  0.9999700000000000  0.2552100000000000
  0.6666299999999999  0.3333700000000000  0.0780700000000000
  0.6666600000000000  0.3333400000000000  0.5885700000000000
  0.3333400000000000  0.6666600000000000  0.4114300000000000
  0.3333700000000000  0.6666299999999999  0.9219300000000001
