Rh Se  P 
 1.0000000000000000
     3.2709999999999999    0.0000000000000000    0.0000000000000000
    -1.6354999999999993    2.8327690957788989    0.0000000000000000
     0.0000000000000000    0.0000000000000000   25.4780000000000015
 Rh  Se  P  
   6   6   3
Direct
  0.1487800000000000  0.8512200000000000  0.6190200000000000
  0.8512200000000000  0.1487800000000000  0.3809800000000000
  0.6687000000000000  0.3312999999999999  0.9569700000000000
  0.7789600000000000  0.2210400000000000  0.7055600000000000
  0.2210400000000000  0.7789599999999999  0.2944400000000000
  0.3313000000000000  0.6687000000000000  0.0430300000000000
  0.9798499999999999  0.0201500000000000  0.7873500000000000
  0.0201500000000000  0.9798500000000000  0.2126500000000000
  0.5118300000000000  0.4881700000000000  0.1233800000000000
  0.6564099999999999  0.3435900000000000  0.5572300000000000
  0.3435900000000000  0.6564100000000000  0.4427700000000000
  0.4881700000000000  0.5118300000000000  0.8766200000000000
  0.0000000000000000  0.0000000000000000  0.0000000000000000
  0.5512099999999999  0.4487900000000000  0.3339199999999999
  0.4487900000000000  0.5512100000000000  0.6660799999999999
