Ni Se Al 
 1.0000000000000000
     3.2690000000000001    0.0000000000000000    0.0000000000000000
    -1.6344999999999994    2.8310370449713305    0.0000000000000000
     0.0000000000000000    0.0000000000000000    8.5470000000000006
 Ni  Se  Al 
   2   2   1
Direct
  0.7039699999999998  0.3519800000000001  0.8626200000000001
  0.2960300000000000  0.6480200000000002  0.1373800000000000
  0.7699700000000000  0.3849800000000000  0.3518500000000000
  0.2300300000000000  0.6150200000000000  0.6481500000000000
  0.0000000000000000  0.0000000000000000  0.0000000000000000
