Ti Mn  C Te
 1.0000000000000000
     3.3029999999999999    0.0000000000000000    0.0000000000000000
    -1.6514999999999991    2.8604819087000011    0.0000000000000000
     0.0000000000000000    0.0000000000000000   25.8299999999999983
 Ti  Mn  C   Te
   3   6   3   6
Direct
  0.0000000000000000  0.0000000000000000  0.0000000000000000
  0.6666700000000000  0.3333300000000000  0.3333300000000001
  0.3333300000000000  0.6666700000000000  0.6666700000000001
  0.0000000000000000  0.0000000000000000  0.8636600000000000
  0.0000000000000000  0.0000000000000000  0.1363400000000000
  0.6666700000000000  0.3333300000000000  0.1969900000000000
  0.6666700000000000  0.3333300000000000  0.4696800000000000
  0.3333300000000000  0.6666700000000000  0.5303200000000000
  0.3333300000000000  0.6666700000000000  0.8030100000000000
  0.0000000000000000  0.0000000000000000  0.5000000000000000
  0.6666700000000000  0.3333300000000000  0.8333300000000000
  0.3333300000000000  0.6666700000000000  0.1666700000000000
  0.0000000000000000  0.0000000000000000  0.7365100000000000
  0.0000000000000000  0.0000000000000000  0.2634900000000000
  0.6666700000000000  0.3333300000000000  0.0698400000000000
  0.6666700000000000  0.3333300000000000  0.5968300000000000
  0.3333300000000000  0.6666700000000000  0.4031700000000000
  0.3333300000000000  0.6666700000000000  0.9301600000000001
