Ru Se Pb 
 1.0000000000000000
     3.2709999999999999    0.0000000000000000    0.0000000000000000
    -1.6354999999999993    2.8327690957788989    0.0000000000000000
     0.0000000000000000    0.0000000000000000   25.4780000000000015
 Ru  Se  Pb 
   6   6   3
Direct
  0.0000000000000000  0.0000000000000000  0.5878100000000001
  0.9999999999999997  0.9999999999999998  0.4121899999999999
  0.6666600000000000  0.3333400000000000  0.9211500000000000
  0.6666700000000000  0.3333300000000000  0.7455199999999998
  0.3333300000000000  0.6666700000000000  0.2544800000000000
  0.3333400000000000  0.6666600000000000  0.0788500000000000
  0.0000000000000000  0.0000000000000000  0.7884499999999999
  0.9999999999999997  0.9999999999999998  0.2115500000000000
  0.6666700000000000  0.3333300000000000  0.1217800000000000
  0.6666700000000000  0.3333300000000000  0.5448800000000000
  0.3333300000000000  0.6666700000000000  0.4551200000000000
  0.3333300000000000  0.6666700000000000  0.8782200000000000
  0.0000000000000000  0.0000000000000000  0.0000000000000000
  0.6666600000000000  0.3333400000000000  0.3333300000000000
  0.3333400000000000  0.6666600000000000  0.6666699999999999
