Mn  Y Te  C 
 1.0000000000000000
     3.3121000000000000    0.0000000000000000    0.0000000000000000
    -1.6560499999999991    2.8683627398744393    0.0000000000000000
     0.0000000000000000    0.0000000000000000    9.0113000000000003
 Mn  Y   Te  C  
   2   2   2   1
Direct
  0.6666600000000003  0.3333300000000000  0.5559500000000001
  0.3333400000000000  0.6666700000000000  0.4440500000000000
  0.6666700000000001  0.3333300000000000  0.8845800000000000
  0.3333300000000001  0.6666700000000000  0.1154200000000000
  0.6666700000000001  0.3333300000000000  0.3024300000000000
  0.3333300000000001  0.6666700000000000  0.6975700000000000
  0.0000000000000000  0.0000000000000000  0.0000000000000000
