Re Te Pb 
 1.0000000000000000
     3.2709999999999999    0.0000000000000000    0.0000000000000000
    -1.6354999999999993    2.8327690957788989    0.0000000000000000
     0.0000000000000000    0.0000000000000000   25.4780000000000015
 Re  Te  Pb 
   6   6   3
Direct
  0.0000000000000000  0.0000000000000000  0.5938900000000000
  0.9999999999999997  0.9999999999999998  0.4061099999999999
  0.6666600000000000  0.3333400000000000  0.9272200000000000
  0.6666700000000000  0.3333300000000000  0.7394399999999999
  0.3333300000000000  0.6666700000000000  0.2605600000000000
  0.3333400000000000  0.6666600000000000  0.0727800000000000
  0.9999999999999997  0.9999999999999998  0.7852100000000000
  0.0000000000000000  0.0000000000000000  0.2147900000000000
  0.6666700000000000  0.3333300000000000  0.1185500000000000
  0.6666600000000000  0.3333400000000000  0.5481200000000001
  0.3333400000000000  0.6666600000000000  0.4518800000000000
  0.3333300000000000  0.6666700000000000  0.8814500000000000
  0.0000000000000000  0.0000000000000000  0.0000000000000000
  0.6666600000000000  0.3333400000000000  0.3333300000000000
  0.3333400000000000  0.6666600000000000  0.6666699999999999
