 V Cd  C Se
 1.0000000000000000
     3.3029999999999999    0.0000000000000000    0.0000000000000000
    -1.6514999999999993    2.8604819087000011    0.0000000000000000
     0.0000000000000000    0.0000000000000000   25.8299999999999983
 V   Cd  C   Se
   3   6   3   6
Direct
  0.0000000000000000  0.0000000000000000  0.0000000000000000
  0.7962199999999999  0.2037800000000000  0.3145700000000000
  0.2037800000000000  0.7962200000000000  0.6854300000000001
  0.0205600000000000  0.9794400000000000  0.8860200000000000
  0.9794400000000000  0.0205600000000000  0.1139800000000000
  0.7507700000000002  0.2492300000000000  0.2165700000000000
  0.6465100000000000  0.3534900000000000  0.4475800000000000
  0.3534900000000000  0.6465100000000000  0.5524200000000000
  0.2492299999999999  0.7507700000000000  0.7834300000000000
  0.0000000000000000  0.0000000000000000  0.5000000000000000
  0.7205200000000000  0.2794800000000000  0.8335700000000000
  0.2794800000000000  0.7205200000000000  0.1664300000000000
  0.8865900000000000  0.1134100000000000  0.7089500000000000
  0.1134100000000000  0.8865900000000001  0.2910500000000000
  0.6622800000000000  0.3377200000000000  0.0425900000000000
  0.6939500000000000  0.3060500000000000  0.6267700000000000
  0.3060500000000000  0.6939500000000000  0.3732300000000000
  0.3377200000000000  0.6622800000000000  0.9574100000000000
