Mn Cu  N Se 
 1.0000000000000000
     3.3029999999999999    0.0000000000000000    0.0000000000000000
    -1.6514999999999991    2.8604819087000011    0.0000000000000000
     0.0000000000000000    0.0000000000000000   25.8299999999999983
 Mn  Cu  N   Se 
   3   6   3   6
Direct
  0.0000000000000000  0.0000000000000000  0.0000000000000000
  0.8198600000000001  0.1801400000000000  0.3561300000000000
  0.1801399999999999  0.8198600000000000  0.6438700000000001
  0.0708000000000001  0.9292000000000001  0.8859700000000000
  0.9291999999999998  0.0708000000000000  0.1140300000000000
  0.4616500000000000  0.5383500000000000  0.2177200000000000
  0.7300200000000000  0.2699800000000000  0.4556200000000000
  0.2699800000000000  0.7300200000000000  0.5443800000000000
  0.5383500000000000  0.4616500000000001  0.7822800000000000
  0.0000000000000000  0.0000000000000000  0.5000000000000000
  0.0340600000000000  0.9659400000000000  0.8193900000000001
  0.9659399999999998  0.0340600000000000  0.1806100000000000
  0.0365899999999999  0.9634100000000000  0.7229100000000002
  0.9634100000000000  0.0365900000000000  0.2770900000000000
  0.6575700000000000  0.3424300000000000  0.0451700000000000
  0.5194399999999999  0.4805600000000000  0.6129700000000000
  0.4805600000000000  0.5194400000000000  0.3870300000000000
  0.3424300000000000  0.6575700000000000  0.9548300000000001
