Pd Se Sb 
 1.0000000000000000
     3.2709999999999999    0.0000000000000000    0.0000000000000000
    -1.6354999999999993    2.8327690957788989    0.0000000000000000
     0.0000000000000000    0.0000000000000000   25.4780000000000015
 Pd  Se  Sb 
   6   6   3
Direct
  0.9999000000000000  0.0001000000000000  0.5990200000000000
  0.0000999999999999  0.9998999999999999  0.4009800000000000
  0.6636400000000000  0.3363600000000000  0.9332100000000000
  0.6625700000000000  0.3374300000000000  0.7328000000000000
  0.3374299999999999  0.6625699999999999  0.2672000000000000
  0.3363600000000000  0.6636400000000000  0.0667900000000000
  0.0260100000000000  0.9739900000000000  0.8075500000000000
  0.9739900000000000  0.0260100000000000  0.1924500000000000
  0.6902100000000000  0.3097900000000000  0.1410800000000000
  0.6926400000000000  0.3073600000000000  0.5249500000000000
  0.3073600000000000  0.6926400000000000  0.4750499999999999
  0.3097900000000000  0.6902099999999999  0.8589200000000000
  0.0000000000000000  0.0000000000000000  0.0000000000000000
  0.6802800000000000  0.3197199999999999  0.3337500000000000
  0.3197199999999999  0.6802799999999999  0.6662500000000000
