Au Se Pb 
 1.0000000000000000
     3.2690000000000001    0.0000000000000000    0.0000000000000000
    -1.6344999999999994    2.8310370449713305    0.0000000000000000
     0.0000000000000000    0.0000000000000000    8.5470000000000006
 Au  Se  Pb 
   2   2   1
Direct
  0.6914399999999998  0.3457200000000000  0.7687600000000000
  0.3085599999999999  0.6542800000000000  0.2312400000000000
  0.6226900000000000  0.3113500000000000  0.4497300000000000
  0.3773099999999999  0.6886500000000000  0.5502700000000000
  0.0000000000000000  0.0000000000000000  0.0000000000000000
