Ni Ru  N  S 
 1.0000000000000000
     3.3029999999999999    0.0000000000000000    0.0000000000000000
    -1.6514999999999991    2.8604819087000011    0.0000000000000000
     0.0000000000000000    0.0000000000000000   25.8299999999999983
 Ni  Ru  N   S  
   3   6   3   6
Direct
  0.0000000000000000  0.0000000000000000  0.0000000000000000
  0.6666600000000000  0.3333400000000000  0.3333700000000000
  0.3333400000000000  0.6666600000000000  0.6666299999999999
  0.0000200000000001  0.9999800000000001  0.8765400000000000
  0.9999800000000000  0.0000200000000000  0.1234600000000000
  0.6666900000000000  0.3333100000000000  0.2098900000000000
  0.6666700000000000  0.3333300000000000  0.4567900000000000
  0.3333300000000000  0.6666700000000000  0.5432100000000000
  0.3333099999999999  0.6666900000000000  0.7901100000000001
  0.0000000000000000  0.0000000000000000  0.5000000000000000
  0.6666700000000000  0.3333300000000000  0.8336600000000000
  0.3333300000000000  0.6666700000000000  0.1663400000000000
  0.9999699999999998  0.0000300000000000  0.7529300000000000
  0.0000300000000000  0.9999700000000000  0.2470700000000000
  0.6666400000000000  0.3333600000000000  0.0861900000000000
  0.6666600000000000  0.3333400000000000  0.5804200000000000
  0.3333400000000000  0.6666600000000000  0.4195800000000001
  0.3333600000000000  0.6666400000000000  0.9138100000000000
