Ag  S Pb 
 1.0000000000000000
     3.2709999999999999    0.0000000000000000    0.0000000000000000
    -1.6354999999999993    2.8327690957788989    0.0000000000000000
     0.0000000000000000    0.0000000000000000   25.4780000000000015
 Ag  S   Pb 
   6   6   3
Direct
  0.0015199999999999  0.9984799999999998  0.5705700000000000
  0.9984799999999998  0.0015200000000000  0.4294300000000000
  0.6565200000000000  0.3434800000000000  0.9039600000000000
  0.6713500000000000  0.3286499999999999  0.7628100000000000
  0.3286499999999999  0.6713499999999999  0.2371900000000000
  0.3434800000000000  0.6565200000000000  0.0960400000000000
  0.0147800000000000  0.9852200000000000  0.8311600000000000
  0.9852199999999999  0.0147800000000000  0.1688400000000000
  0.6852200000000001  0.3147799999999999  0.1644599999999999
  0.6847999999999999  0.3152000000000000  0.5011700000000000
  0.3151999999999999  0.6848000000000000  0.4988299999999999
  0.3147799999999999  0.6852199999999999  0.8355399999999999
  0.0000000000000000  0.0000000000000000  0.0000000000000000
  0.6858099999999999  0.3141900000000000  0.3331000000000000
  0.3141900000000000  0.6858100000000000  0.6669000000000000
