 V  W  C  S
 1.0000000000000000
     3.3029999999999999    0.0000000000000000    0.0000000000000000
    -1.6514999999999991    2.8604819087000011    0.0000000000000000
     0.0000000000000000    0.0000000000000000   25.8299999999999983
 V   W   C   S
   3   6   3   6
Direct
  0.0000000000000000  0.0000000000000000  0.0000000000000000
  0.6666700000000000  0.3333300000000000  0.3333300000000001
  0.3333300000000000  0.6666700000000000  0.6666700000000001
  0.0000000000000000  0.0000000000000000  0.8726300000000002
  0.0000000000000000  0.0000000000000000  0.1273700000000000
  0.6666700000000000  0.3333300000000000  0.2059600000000000
  0.6666700000000000  0.3333300000000000  0.4607100000000000
  0.3333300000000000  0.6666700000000000  0.5392900000000000
  0.3333300000000000  0.6666700000000000  0.7940400000000000
  0.0000000000000000  0.0000000000000000  0.5000000000000000
  0.6666700000000000  0.3333300000000000  0.8333300000000000
  0.3333300000000000  0.6666700000000000  0.1666700000000000
  0.0000000000000000  0.0000000000000000  0.7244000000000000
  0.0000000000000000  0.0000000000000000  0.2756000000000000
  0.6666700000000000  0.3333300000000000  0.0577300000000000
  0.6666700000000000  0.3333300000000000  0.6089400000000000
  0.3333300000000000  0.6666700000000000  0.3910600000000000
  0.3333300000000000  0.6666700000000000  0.9422700000000001
