Mg Au  C  S
 1.0000000000000000
     3.3029999999999999    0.0000000000000000    0.0000000000000000
    -1.6514999999999991    2.8604819087000011    0.0000000000000000
     0.0000000000000000    0.0000000000000000   25.8299999999999983
 Mg  Au  C   S
   3   6   3   6
Direct
  0.0000000000000000  0.0000000000000000  0.0000000000000000
  0.6666700000000000  0.3333300000000000  0.3333300000000001
  0.3333300000000000  0.6666700000000000  0.6666700000000001
  0.0000000000000000  0.0000000000000000  0.8804600000000001
  0.0000000000000000  0.0000000000000000  0.1195400000000000
  0.6666700000000000  0.3333300000000000  0.2137900000000000
  0.6666700000000000  0.3333300000000000  0.4528700000000001
  0.3333300000000000  0.6666700000000000  0.5471300000000000
  0.3333300000000000  0.6666700000000000  0.7862100000000000
  0.0000000000000000  0.0000000000000000  0.5000000000000000
  0.6666700000000000  0.3333300000000000  0.8333300000000000
  0.3333300000000000  0.6666700000000000  0.1666700000000000
  0.0000000000000000  0.0000000000000000  0.7226200000000000
  0.0000000000000000  0.0000000000000000  0.2773800000000000
  0.6666700000000000  0.3333300000000000  0.0559500000000000
  0.6666700000000000  0.3333300000000000  0.6107100000000000
  0.3333300000000000  0.6666700000000000  0.3892900000000000
  0.3333300000000000  0.6666700000000000  0.9440500000000002
