Ag Ir  N  S 
 1.0000000000000000
     3.3029999999999999    0.0000000000000000    0.0000000000000000
    -1.6514999999999991    2.8604819087000011    0.0000000000000000
     0.0000000000000000    0.0000000000000000   25.8299999999999983
 Ag  Ir  N   S  
   3   6   3   6
Direct
  0.0000000000000000  0.0000000000000000  0.0000000000000000
  0.6666700000000000  0.3333300000000000  0.3333300000000001
  0.3333300000000000  0.6666700000000000  0.6666700000000001
  0.0000000000000000  0.0000000000000000  0.8756600000000000
  0.0000000000000000  0.0000000000000000  0.1243400000000000
  0.6666700000000000  0.3333300000000000  0.2089200000000000
  0.6666700000000000  0.3333300000000000  0.4577100000000001
  0.3333300000000000  0.6666700000000000  0.5422900000000000
  0.3333300000000000  0.6666700000000000  0.7910800000000000
  0.0000000000000000  0.0000000000000000  0.5000000000000000
  0.6666700000000000  0.3333300000000000  0.8334500000000000
  0.3333300000000000  0.6666700000000000  0.1665500000000000
  0.0000000000000000  0.0000000000000000  0.7495300000000000
  0.0000000000000000  0.0000000000000000  0.2504700000000000
  0.6666700000000000  0.3333300000000000  0.0828100000000000
  0.6666700000000000  0.3333300000000000  0.5838300000000000
  0.3333300000000000  0.6666700000000000  0.4161700000000000
  0.3333300000000000  0.6666700000000000  0.9171899999999999
