Mo Te Al 
 1.0000000000000000
     3.2709999999999999    0.0000000000000000    0.0000000000000000
    -1.6354999999999993    2.8327690957788989    0.0000000000000000
     0.0000000000000000    0.0000000000000000   25.4780000000000015
 Mo  Te  Al 
   6   6   3
Direct
  0.0000000000000000  0.0000000000000000  0.6211200000000000
  0.9999999999999997  0.9999999999999998  0.3788800000000000
  0.6666700000000000  0.3333300000000000  0.9544499999999998
  0.6666700000000000  0.3333300000000000  0.7122100000000000
  0.3333300000000000  0.6666700000000000  0.2877900000000000
  0.3333300000000000  0.6666700000000000  0.0455500000000000
  0.0000000000000000  0.0000000000000000  0.7711400000000000
  0.9999999999999997  0.9999999999999998  0.2288600000000000
  0.6666700000000000  0.3333300000000000  0.1044700000000000
  0.6666700000000000  0.3333300000000000  0.5621900000000000
  0.3333300000000000  0.6666700000000000  0.4378100000000000
  0.3333300000000000  0.6666700000000000  0.8955300000000000
  0.0000000000000000  0.0000000000000000  0.0000000000000000
  0.6666700000000000  0.3333300000000000  0.3333300000000000
  0.3333300000000000  0.6666700000000000  0.6666699999999999
