Cd Se  B 
 1.0000000000000000
     3.2690000000000001    0.0000000000000000    0.0000000000000000
    -1.6344999999999994    2.8310370449713305    0.0000000000000000
     0.0000000000000000    0.0000000000000000    8.5470000000000006
 Cd  Se  B  
   2   2   1
Direct
  0.7320499999999999  0.3660200000000000  0.7981300000000000
  0.2679500000000000  0.6339800000000001  0.2018700000000000
  0.6192199999999998  0.3096100000000001  0.4459500000000000
  0.3807800000000001  0.6903900000000001  0.5540500000000000
  0.0000000000000000  0.0000000000000000  0.0000000000000000
