Zn  S As 
 1.0000000000000000
     3.2709999999999999    0.0000000000000000    0.0000000000000000
    -1.6354999999999993    2.8327690957788989    0.0000000000000000
     0.0000000000000000    0.0000000000000000   25.4780000000000015
 Zn  S   As 
   6   6   3
Direct
  0.9996900000000000  0.0003100000000000  0.5543400000000001
  0.0003099999999999  0.9996899999999999  0.4456600000000000
  0.7359699999999999  0.2640299999999999  0.9015499999999997
  0.7946600000000000  0.2053400000000000  0.7171999999999999
  0.2053400000000000  0.7946599999999999  0.2828000000000000
  0.2640300000000000  0.7359700000000000  0.0984500000000000
  0.1186099999999999  0.8813899999999999  0.8080700000000000
  0.8813900000000000  0.1186100000000000  0.1919300000000000
  0.5851299999999999  0.4148700000000000  0.1920900000000000
  0.6685900000000000  0.3314099999999999  0.5001100000000001
  0.3314099999999999  0.6685899999999999  0.4998900000000000
  0.4148700000000000  0.5851299999999999  0.8079100000000000
  0.0000000000000000  0.0000000000000000  0.0000000000000000
  0.5033300000000001  0.4966699999999999  0.3788200000000000
  0.4966699999999999  0.5033299999999999  0.6211800000000000
