Zr  S  B 
 1.0000000000000000
     3.2690000000000001    0.0000000000000000    0.0000000000000000
    -1.6344999999999994    2.8310370449713305    0.0000000000000000
     0.0000000000000000    0.0000000000000000    8.5470000000000006
 Zr  S   B  
   2   2   1
Direct
  0.6788400000000000  0.3394200000000000  0.9114700000000000
  0.3211600000000000  0.6605800000000001  0.0885300000000000
  0.8987999999999997  0.4494000000000001  0.3337700000000000
  0.1012000000000000  0.5506000000000000  0.6662300000000000
  0.0000000000000000  0.0000000000000000  0.0000000000000000
