Cd Te Si 
 1.0000000000000000
     3.2709999999999999    0.0000000000000000    0.0000000000000000
    -1.6354999999999993    2.8327690957788989    0.0000000000000000
     0.0000000000000000    0.0000000000000000   25.4780000000000015
 Cd  Te  Si 
   6   6   3
Direct
  0.9999999999999997  0.9999999999999998  0.6094100000000000
  0.0000000000000000  0.0000000000000000  0.3905899999999999
  0.6666700000000000  0.3333300000000000  0.9427500000000000
  0.6666700000000000  0.3333300000000000  0.7239199999999999
  0.3333300000000000  0.6666700000000000  0.2760800000000000
  0.3333300000000000  0.6666700000000000  0.0572500000000000
  0.9999999999999997  0.9999999999999998  0.7944300000000000
  0.0000000000000000  0.0000000000000000  0.2055700000000000
  0.6666700000000000  0.3333300000000000  0.1277700000000000
  0.6666700000000000  0.3333300000000000  0.5389000000000000
  0.3333300000000000  0.6666700000000000  0.4611000000000000
  0.3333300000000000  0.6666700000000000  0.8722299999999998
  0.0000000000000000  0.0000000000000000  0.0000000000000000
  0.6666700000000000  0.3333300000000000  0.3333300000000000
  0.3333300000000000  0.6666700000000000  0.6666699999999999
