Ca Rh  C Se
 1.0000000000000000
     3.3029999999999999    0.0000000000000000    0.0000000000000000
    -1.6514999999999993    2.8604819087000011    0.0000000000000000
     0.0000000000000000    0.0000000000000000   25.8299999999999983
 Ca  Rh  C   Se
   3   6   3   6
Direct
  0.0000000000000000  0.0000000000000000  0.0000000000000000
  0.4901600000000000  0.5098400000000000  0.3121600000000000
  0.5098400000000000  0.4901600000000000  0.6878400000000000
  0.9940200000000000  0.0059800000000000  0.9041100000000000
  0.0059800000000000  0.9940200000000000  0.0958900000000000
  0.3711699999999999  0.6288300000000000  0.1811700000000000
  0.6174999999999998  0.3825000000000000  0.4606800000000000
  0.3824999999999998  0.6175000000000000  0.5393200000000000
  0.6288300000000000  0.3711700000000000  0.8188299999999999
  0.0000000000000000  0.0000000000000000  0.5000000000000000
  0.9615700000000000  0.0384300000000000  0.8261900000000000
  0.0384300000000000  0.9615700000000000  0.1738100000000000
  0.1771899999999999  0.8228099999999999  0.7170300000000001
  0.8228100000000000  0.1771900000000000  0.2829700000000000
  0.6677700000000000  0.3322300000000000  0.0460600000000000
  0.7499400000000002  0.2500600000000000  0.5933400000000000
  0.2500599999999999  0.7499400000000001  0.4066600000000000
  0.3322300000000000  0.6677700000000000  0.9539400000000001
