Mo Te  B 
 1.0000000000000000
     3.2690000000000001    0.0000000000000000    0.0000000000000000
    -1.6344999999999994    2.8310370449713305    0.0000000000000000
     0.0000000000000000    0.0000000000000000    8.5470000000000006
 Mo  Te  B  
   2   2   1
Direct
  0.6746799999999997  0.3373400000000000  0.9141800000000000
  0.3253199999999999  0.6626600000000000  0.0858200000000000
  0.5434500000000000  0.2717300000000000  0.3057500000000000
  0.4565500000000000  0.7282700000000001  0.6942499999999999
  0.0000000000000000  0.0000000000000000  0.0000000000000000
