Ta Te Sb 
 1.0000000000000000
     3.2709999999999999    0.0000000000000000    0.0000000000000000
    -1.6354999999999993    2.8327690957788989    0.0000000000000000
     0.0000000000000000    0.0000000000000000   25.4780000000000015
 Ta  Te  Sb 
   6   6   3
Direct
  0.6983900000000000  0.3016100000000000  0.5876200000000000
  0.3016099999999999  0.6983899999999998  0.4123800000000000
  0.6829400000000000  0.3170600000000000  0.9466500000000000
  0.6486099999999999  0.3513899999999999  0.7364600000000000
  0.3513900000000000  0.6486100000000000  0.2635400000000000
  0.3170600000000000  0.6829400000000000  0.0533500000000000
  0.9758899999999999  0.0241100000000000  0.7816600000000000
  0.0241100000000000  0.9758899999999999  0.2183400000000000
  0.7434500000000001  0.2565499999999999  0.1163700000000000
  0.3691699999999999  0.6308299999999999  0.5454200000000000
  0.6308299999999999  0.3691700000000000  0.4545800000000000
  0.2565499999999999  0.7434499999999998  0.8836300000000000
  0.9999999999999997  0.9999999999999998  0.0000000000000000
  0.8287200000000000  0.1712800000000000  0.3375900000000000
  0.1712799999999998  0.8287199999999998  0.6624100000000001
