Na Cu  C  S
 1.0000000000000000
     3.3029999999999999    0.0000000000000000    0.0000000000000000
    -1.6514999999999991    2.8604819087000011    0.0000000000000000
     0.0000000000000000    0.0000000000000000   25.8299999999999983
 Na  Cu  C   S
   3   6   3   6
Direct
  0.0000000000000000  0.0000000000000000  0.0000000000000000
  0.6666700000000000  0.3333300000000000  0.3333300000000001
  0.3333300000000000  0.6666700000000000  0.6666700000000001
  0.0000000000000000  0.0000000000000000  0.8736300000000000
  0.0000000000000000  0.0000000000000000  0.1263700000000000
  0.6666700000000000  0.3333300000000000  0.2069700000000000
  0.6666700000000000  0.3333300000000000  0.4597000000000001
  0.3333300000000000  0.6666700000000000  0.5403000000000000
  0.3333300000000000  0.6666700000000000  0.7930300000000001
  0.0000000000000000  0.0000000000000000  0.5000000000000000
  0.6666700000000000  0.3333300000000000  0.8333300000000000
  0.3333300000000000  0.6666700000000000  0.1666700000000000
  0.0000000000000000  0.0000000000000000  0.7420600000000002
  0.0000000000000000  0.0000000000000000  0.2579400000000000
  0.6666700000000000  0.3333300000000000  0.0753900000000000
  0.6666600000000000  0.3333400000000000  0.5912700000000000
  0.3333400000000000  0.6666600000000000  0.4087300000000000
  0.3333300000000000  0.6666700000000000  0.9246100000000000
