Cu Cr  C Te
 1.0000000000000000
     3.3029999999999999    0.0000000000000000    0.0000000000000000
    -1.6514999999999991    2.8604819087000011    0.0000000000000000
     0.0000000000000000    0.0000000000000000   25.8299999999999983
 Cu  Cr  C   Te
   3   6   3   6
Direct
  0.0000000000000000  0.0000000000000000  0.0000000000000000
  0.6666700000000000  0.3333300000000000  0.3333300000000001
  0.3333300000000000  0.6666700000000000  0.6666700000000001
  0.0000000000000000  0.0000000000000000  0.8628200000000000
  0.0000000000000000  0.0000000000000000  0.1371800000000000
  0.6666700000000000  0.3333300000000000  0.1961500000000000
  0.6666700000000000  0.3333300000000000  0.4705200000000000
  0.3333300000000000  0.6666700000000000  0.5294800000000000
  0.3333300000000000  0.6666700000000000  0.8038500000000000
  0.0000000000000000  0.0000000000000000  0.5000000000000000
  0.6666700000000000  0.3333300000000000  0.8333300000000000
  0.3333300000000000  0.6666700000000000  0.1666700000000000
  0.0000000000000000  0.0000000000000000  0.7342300000000000
  0.0000000000000000  0.0000000000000000  0.2657700000000000
  0.6666700000000000  0.3333300000000000  0.0675600000000000
  0.6666600000000000  0.3333400000000000  0.5991100000000000
  0.3333400000000000  0.6666600000000000  0.4008900000000000
  0.3333300000000000  0.6666700000000000  0.9324400000000003
