Ni Os  S  N 
 1.0000000000000000
     3.3121000000000000    0.0000000000000000    0.0000000000000000
    -1.6560499999999994    2.8683627398744393    0.0000000000000000
     0.0000000000000000    0.0000000000000000    9.0113000000000003
 Ni  Os  S   N  
   2   2   2   1
Direct
  0.6667100000000000  0.3333600000000000  0.5903300000000000
  0.3332900000000001  0.6666400000000000  0.4096700000000000
  0.6663700000000002  0.3331900000000000  0.8848500000000000
  0.3336300000000000  0.6668100000000000  0.1151500000000000
  0.6666900000000002  0.3333500000000000  0.2765000000000000
  0.3333100000000000  0.6666500000000000  0.7235000000000000
  0.0000000000000000  0.0000000000000000  0.0000000000000000
