Zn Re  C  S
 1.0000000000000000
     3.3029999999999999    0.0000000000000000    0.0000000000000000
    -1.6514999999999991    2.8604819087000011    0.0000000000000000
     0.0000000000000000    0.0000000000000000   25.8299999999999983
 Zn  Re  C   S
   3   6   3   6
Direct
  0.0000000000000000  0.0000000000000000  0.0000000000000000
  0.6666700000000000  0.3333300000000000  0.3333300000000001
  0.3333300000000000  0.6666700000000000  0.6666700000000001
  0.0000000000000000  0.0000000000000000  0.8686100000000000
  0.0000000000000000  0.0000000000000000  0.1313900000000000
  0.6666600000000000  0.3333400000000000  0.2019400000000001
  0.6666600000000000  0.3333400000000000  0.4647400000000000
  0.3333400000000000  0.6666600000000000  0.5352600000000000
  0.3333400000000000  0.6666600000000000  0.7980600000000000
  0.0000000000000000  0.0000000000000000  0.5000000000000000
  0.6666600000000000  0.3333400000000000  0.8333300000000000
  0.3333400000000000  0.6666600000000000  0.1666700000000000
  0.0000000000000000  0.0000000000000000  0.7292000000000000
  0.0000000000000000  0.0000000000000000  0.2708000000000000
  0.6666700000000000  0.3333300000000000  0.0625300000000000
  0.6666700000000000  0.3333300000000000  0.6041299999999999
  0.3333300000000000  0.6666700000000000  0.3958700000000000
  0.3333300000000000  0.6666700000000000  0.9374700000000000
