Ca Au  C Se
 1.0000000000000000
     3.3029999999999999    0.0000000000000000    0.0000000000000000
    -1.6514999999999993    2.8604819087000011    0.0000000000000000
     0.0000000000000000    0.0000000000000000   25.8299999999999983
 Ca  Au  C   Se
   3   6   3   6
Direct
  0.0000000000000000  0.0000000000000000  0.0000000000000000
  0.6666700000000000  0.3333300000000000  0.3333200000000000
  0.3333300000000000  0.6666700000000000  0.6666800000000002
  0.0000000000000000  0.0000000000000000  0.8831000000000000
  0.0000000000000000  0.0000000000000000  0.1169000000000000
  0.6666700000000000  0.3333300000000000  0.2164400000000000
  0.6666700000000000  0.3333300000000000  0.4502300000000001
  0.3333300000000000  0.6666700000000000  0.5497700000000000
  0.3333300000000000  0.6666700000000000  0.7835600000000001
  0.0000000000000000  0.0000000000000000  0.5000000000000000
  0.6666700000000000  0.3333300000000000  0.8333300000000000
  0.3333300000000000  0.6666700000000000  0.1666700000000000
  0.0000000000000000  0.0000000000000000  0.7171500000000000
  0.0000000000000000  0.0000000000000000  0.2828500000000000
  0.6666700000000000  0.3333300000000000  0.0504900000000000
  0.6666700000000000  0.3333300000000000  0.6161700000000000
  0.3333300000000000  0.6666700000000000  0.3838300000000000
  0.3333300000000000  0.6666700000000000  0.9495100000000000
