Pt Te In 
 1.0000000000000000
     3.2709999999999999    0.0000000000000000    0.0000000000000000
    -1.6354999999999993    2.8327690957788989    0.0000000000000000
     0.0000000000000000    0.0000000000000000   25.4780000000000015
 Pt  Te  In 
   6   6   3
Direct
  0.0206199999999999  0.9793799999999999  0.5951800000000000
  0.9793799999999999  0.0206200000000000  0.4048200000000000
  0.6591200000000000  0.3408800000000000  0.9285700000000000
  0.6909899999999999  0.3090100000000000  0.7381700000000000
  0.3090100000000000  0.6909900000000000  0.2618300000000000
  0.3408800000000000  0.6591199999999999  0.0714300000000000
  0.0191499999999998  0.9808499999999998  0.8000399999999999
  0.9808500000000000  0.0191500000000000  0.1999600000000000
  0.6699100000000000  0.3300900000000000  0.1333700000000000
  0.6817400000000000  0.3182599999999999  0.5330800000000000
  0.3182600000000000  0.6817399999999999  0.4669199999999999
  0.3300899999999999  0.6699099999999999  0.8666300000000000
  0.0000000000000000  0.0000000000000000  0.0000000000000000
  0.6465999999999998  0.3533999999999999  0.3335499999999999
  0.3534000000000000  0.6465999999999998  0.6664500000000000
