 V Se  P 
 1.0000000000000000
     3.2709999999999999    0.0000000000000000    0.0000000000000000
    -1.6354999999999993    2.8327690957788989    0.0000000000000000
     0.0000000000000000    0.0000000000000000   25.4780000000000015
 V   Se  P  
   6   6   3
Direct
  0.9999999999999997  0.9999999999999998  0.6360699999999999
  0.0000000000000000  0.0000000000000000  0.3639299999999999
  0.6666700000000000  0.3333300000000000  0.9694000000000000
  0.6666700000000000  0.3333300000000000  0.6972599999999999
  0.3333300000000000  0.6666700000000000  0.3027400000000000
  0.3333300000000000  0.6666700000000000  0.0306000000000000
  0.9999900000000000  0.0000100000000000  0.7718200000000000
  0.0000100000000000  0.9999899999999999  0.2281800000000000
  0.6666800000000001  0.3333199999999999  0.1051500000000000
  0.6666800000000001  0.3333199999999999  0.5615200000000000
  0.3333199999999999  0.6666800000000001  0.4384800000000000
  0.3333199999999999  0.6666800000000001  0.8948499999999998
  0.0000000000000000  0.0000000000000000  0.0000000000000000
  0.6666700000000000  0.3333300000000000  0.3333400000000000
  0.3333300000000000  0.6666700000000000  0.6666599999999999
