Mn Ir  N  S 
 1.0000000000000000
     3.3029999999999999    0.0000000000000000    0.0000000000000000
    -1.6514999999999991    2.8604819087000011    0.0000000000000000
     0.0000000000000000    0.0000000000000000   25.8299999999999983
 Mn  Ir  N   S  
   3   6   3   6
Direct
  0.0000000000000000  0.0000000000000000  0.0000000000000000
  0.7492700000000000  0.2507300000000000  0.3624300000000000
  0.2507300000000000  0.7492700000000000  0.6375700000000000
  0.0742900000000000  0.9257100000000000  0.8210800000000000
  0.9257100000000000  0.0742900000000000  0.1789200000000000
  0.6298799999999998  0.3701200000000001  0.2725100000000000
  0.6570300000000000  0.3429700000000000  0.4562700000000000
  0.3429699999999999  0.6570300000000000  0.5437300000000000
  0.3701199999999999  0.6298800000000000  0.7274900000000000
  0.0000000000000000  0.0000000000000000  0.5000000000000000
  0.7413200000000000  0.2586800000000000  0.8405300000000000
  0.2586800000000000  0.7413200000000000  0.1594700000000000
  0.9705199999999999  0.0294800000000000  0.6803399999999999
  0.0294799999999999  0.9705200000000000  0.3196600000000001
  0.6660600000000000  0.3339400000000000  0.0421200000000000
  0.6611399999999999  0.3388600000000000  0.5876500000000000
  0.3388600000000000  0.6611399999999999  0.4123500000000000
  0.3339400000000000  0.6660600000000000  0.9578800000000000
