Na Sc  C  S
 1.0000000000000000
     3.3029999999999999    0.0000000000000000    0.0000000000000000
    -1.6514999999999991    2.8604819087000011    0.0000000000000000
     0.0000000000000000    0.0000000000000000   25.8299999999999983
 Na  Sc  C   S
   3   6   3   6
Direct
  0.0000000000000000  0.0000000000000000  0.0000000000000000
  0.6666700000000000  0.3333300000000000  0.3333300000000001
  0.3333300000000000  0.6666700000000000  0.6666700000000001
  0.0000000000000000  0.0000000000000000  0.8802300000000000
  0.0000000000000000  0.0000000000000000  0.1197700000000000
  0.6666700000000000  0.3333300000000000  0.2135700000000000
  0.6666700000000000  0.3333300000000000  0.4531000000000000
  0.3333300000000000  0.6666700000000000  0.5469000000000001
  0.3333300000000000  0.6666700000000000  0.7864300000000000
  0.0000000000000000  0.0000000000000000  0.5000000000000000
  0.6666700000000000  0.3333300000000000  0.8333300000000000
  0.3333300000000000  0.6666700000000000  0.1666700000000000
  0.0000000000000000  0.0000000000000000  0.7285900000000000
  0.0000000000000000  0.0000000000000000  0.2714100000000000
  0.6666700000000000  0.3333300000000000  0.0619200000000000
  0.6666700000000000  0.3333300000000000  0.6047500000000000
  0.3333300000000000  0.6666700000000000  0.3952500000000000
  0.3333300000000000  0.6666700000000000  0.9380800000000000
