Ni Re  C Te
 1.0000000000000000
     3.3029999999999999    0.0000000000000000    0.0000000000000000
    -1.6514999999999993    2.8604819087000011    0.0000000000000000
     0.0000000000000000    0.0000000000000000   25.8299999999999983
 Ni  Re  C   Te
   3   6   3   6
Direct
  0.0000000000000000  0.0000000000000000  0.0000000000000000
  0.6689700000000000  0.3310300000000000  0.3356800000000000
  0.3310300000000000  0.6689700000000000  0.6643200000000000
  0.9645100000000000  0.0354900000000000  0.8757400000000000
  0.0354900000000000  0.9645100000000000  0.1242600000000000
  0.7604399999999998  0.2395600000000000  0.1976800000000001
  0.7223600000000000  0.2776400000000000  0.4621000000000000
  0.2776400000000000  0.7223600000000000  0.5379000000000000
  0.2395600000000000  0.7604400000000000  0.8023200000000001
  0.0000000000000000  0.0000000000000000  0.5000000000000000
  0.5792000000000000  0.4208000000000001  0.8183300000000001
  0.4208000000000000  0.5792000000000000  0.1816700000000000
  0.0070800000000000  0.9929200000000001  0.7282200000000000
  0.9929199999999999  0.0070800000000000  0.2717800000000000
  0.7011500000000001  0.2988500000000000  0.0680400000000000
  0.6407400000000000  0.3592600000000001  0.5972200000000000
  0.3592600000000000  0.6407400000000000  0.4027800000000000
  0.2988500000000001  0.7011500000000002  0.9319600000000000
