Ti Se Ga 
 1.0000000000000000
     3.2709999999999999    0.0000000000000000    0.0000000000000000
    -1.6354999999999993    2.8327690957788989    0.0000000000000000
     0.0000000000000000    0.0000000000000000   25.4780000000000015
 Ti  Se  Ga 
   6   6   3
Direct
  0.0000100000000000  0.9999899999999999  0.5763300000000000
  0.9999900000000000  0.0000100000000000  0.4236700000000000
  0.6666700000000000  0.3333300000000000  0.9096600000000000
  0.6666900000000000  0.3333099999999999  0.7569999999999998
  0.3333100000000000  0.6666900000000000  0.2429999999999999
  0.3333300000000000  0.6666700000000000  0.0903400000000000
  0.0000199999999999  0.9999799999999998  0.7833599999999998
  0.9999800000000000  0.0000200000000000  0.2166400000000000
  0.6666600000000000  0.3333400000000000  0.1166900000000000
  0.6666800000000001  0.3333199999999999  0.5499700000000000
  0.3333199999999999  0.6666800000000001  0.4500299999999999
  0.3333400000000000  0.6666600000000000  0.8833100000000000
  0.0000000000000000  0.0000000000000000  0.0000000000000000
  0.6667299999999999  0.3332700000000000  0.3333400000000000
  0.3332700000000000  0.6667299999999999  0.6666599999999999
