Sc Mo  C Te
 1.0000000000000000
     3.3029999999999999    0.0000000000000000    0.0000000000000000
    -1.6514999999999993    2.8604819087000011    0.0000000000000000
     0.0000000000000000    0.0000000000000000   25.8299999999999983
 Sc  Mo  C   Te
   3   6   3   6
Direct
  0.0000000000000000  0.0000000000000000  0.0000000000000000
  0.6667100000000000  0.3332900000000000  0.3199200000000000
  0.3332900000000000  0.6667100000000000  0.6800800000000000
  0.0000000000000000  0.0000000000000000  0.8836400000000001
  0.0000000000000000  0.0000000000000000  0.1163600000000000
  0.6666700000000000  0.3333300000000000  0.1684800000000000
  0.6666499999999999  0.3333500000000000  0.4725500000000001
  0.3333499999999999  0.6666500000000000  0.5274500000000000
  0.3333300000000000  0.6666700000000000  0.8315200000000000
  0.0000000000000000  0.0000000000000000  0.5000000000000000
  0.6666600000000000  0.3333400000000000  0.8245500000000000
  0.3333400000000000  0.6666600000000000  0.1754500000000000
  0.9999600000000000  0.0000400000000000  0.7203500000000003
  0.0000400000000001  0.9999600000000000  0.2796500000000000
  0.6666700000000000  0.3333300000000000  0.0559900000000000
  0.6666999999999998  0.3333000000000000  0.5935400000000000
  0.3332999999999999  0.6667000000000000  0.4064600000000000
  0.3333300000000000  0.6666700000000000  0.9440100000000000
