Zn Rh  C Te
 1.0000000000000000
     3.3029999999999999    0.0000000000000000    0.0000000000000000
    -1.6514999999999993    2.8604819087000011    0.0000000000000000
     0.0000000000000000    0.0000000000000000   25.8299999999999983
 Zn  Rh  C   Te
   3   6   3   6
Direct
  0.0000000000000000  0.0000000000000000  0.0000000000000000
  0.6666600000000000  0.3333400000000000  0.3333300000000001
  0.3333400000000000  0.6666600000000000  0.6666700000000001
  0.9999899999999998  0.0000100000000000  0.8700400000000000
  0.0000100000000001  0.9999900000000002  0.1299600000000000
  0.6666800000000001  0.3333200000000000  0.2033700000000000
  0.6666700000000000  0.3333300000000000  0.4632900000000000
  0.3333300000000000  0.6666700000000000  0.5367100000000000
  0.3333200000000000  0.6666800000000001  0.7966300000000001
  0.0000000000000000  0.0000000000000000  0.5000000000000000
  0.6666800000000001  0.3333200000000000  0.8333300000000000
  0.3333200000000000  0.6666800000000001  0.1666700000000000
  0.0000000000000000  0.0000000000000000  0.7449900000000003
  0.0000000000000000  0.0000000000000000  0.2550100000000000
  0.6666700000000000  0.3333300000000000  0.0783200000000000
  0.6666700000000000  0.3333300000000000  0.5883400000000000
  0.3333300000000000  0.6666700000000000  0.4116600000000000
  0.3333300000000000  0.6666700000000000  0.9216800000000001
