Zn Se  B 
 1.0000000000000000
     3.2709999999999999    0.0000000000000000    0.0000000000000000
    -1.6354999999999993    2.8327690957788989    0.0000000000000000
     0.0000000000000000    0.0000000000000000   25.4780000000000015
 Zn  Se  B  
   6   6   3
Direct
  0.9766700000000000  0.0233300000000000  0.6102400000000000
  0.0233299999999999  0.9766699999999999  0.3897600000000000
  0.7351500000000000  0.2648500000000000  0.9378000000000000
  0.5033400000000000  0.4966599999999999  0.7365599999999998
  0.4966599999999999  0.5033400000000000  0.2634400000000000
  0.2648500000000000  0.7351500000000000  0.0622000000000000
  0.9803800000000000  0.0196200000000000  0.8137100000000000
  0.0196200000000000  0.9803800000000000  0.1862900000000000
  0.7366600000000000  0.2633400000000000  0.1392200000000000
  0.6974800000000000  0.3025200000000000  0.5256400000000000
  0.3025200000000000  0.6974799999999999  0.4743600000000000
  0.2633400000000000  0.7366599999999999  0.8607799999999999
  0.0000000000000000  0.0000000000000000  0.0000000000000000
  0.7611100000000000  0.2388900000000000  0.3262500000000000
  0.2388900000000000  0.7611100000000000  0.6737500000000000
