 W Te Ge 
 1.0000000000000000
     3.2690000000000001    0.0000000000000000    0.0000000000000000
    -1.6344999999999994    2.8310370449713305    0.0000000000000000
     0.0000000000000000    0.0000000000000000    8.5470000000000006
 W   Te  Ge 
   2   2   1
Direct
  0.6570099999999998  0.3285000000000000  0.8685000000000000
  0.3429900000000000  0.6715000000000000  0.1315000000000000
  0.6157300000000000  0.3078700000000000  0.3215400000000000
  0.3842699999999999  0.6921300000000000  0.6784600000000000
  0.0000000000000000  0.0000000000000000  0.0000000000000000
