Cd  S Ga 
 1.0000000000000000
     3.2709999999999999    0.0000000000000000    0.0000000000000000
    -1.6354999999999993    2.8327690957788989    0.0000000000000000
     0.0000000000000000    0.0000000000000000   25.4780000000000015
 Cd  S   Ga 
   6   6   3
Direct
  0.0003599999999999  0.9996399999999998  0.5746200000000000
  0.9996400000000000  0.0003600000000000  0.4253800000000000
  0.6662300000000000  0.3337700000000000  0.9079600000000000
  0.6670800000000000  0.3329200000000000  0.7587299999999998
  0.3329200000000000  0.6670800000000000  0.2412700000000000
  0.3337699999999999  0.6662299999999999  0.0920400000000000
  0.0093499999999999  0.9906499999999998  0.8332900000000000
  0.9906500000000000  0.0093500000000000  0.1667100000000000
  0.6760199999999998  0.3239800000000000  0.1666200000000000
  0.6766199999999999  0.3233800000000000  0.5000500000000000
  0.3233799999999999  0.6766199999999998  0.4999500000000000
  0.3239800000000000  0.6760200000000000  0.8333799999999999
  0.0000000000000000  0.0000000000000000  0.0000000000000000
  0.6672799999999999  0.3327200000000000  0.3333199999999999
  0.3327200000000000  0.6672800000000000  0.6666800000000001
