Ir Te In 
 1.0000000000000000
     3.2709999999999999    0.0000000000000000    0.0000000000000000
    -1.6354999999999993    2.8327690957788989    0.0000000000000000
     0.0000000000000000    0.0000000000000000   25.4780000000000015
 Ir  Te  In 
   6   6   3
Direct
  0.9999999999999997  0.9999999999999998  0.5932100000000000
  0.0000000000000000  0.0000000000000000  0.4067900000000000
  0.6666700000000000  0.3333300000000000  0.9265400000000000
  0.6666700000000000  0.3333300000000000  0.7401200000000000
  0.3333300000000000  0.6666700000000000  0.2598800000000000
  0.3333300000000000  0.6666700000000000  0.0734600000000000
  0.9999999999999997  0.9999999999999998  0.7951700000000000
  0.0000000000000000  0.0000000000000000  0.2048300000000000
  0.6666700000000000  0.3333300000000000  0.1285000000000000
  0.6666700000000000  0.3333300000000000  0.5381600000000000
  0.3333300000000000  0.6666700000000000  0.4618400000000000
  0.3333300000000000  0.6666700000000000  0.8714999999999999
  0.0000000000000000  0.0000000000000000  0.0000000000000000
  0.6666700000000000  0.3333300000000000  0.3333300000000000
  0.3333300000000000  0.6666700000000000  0.6666699999999999
