Ni Mo  C Te
 1.0000000000000000
     3.3029999999999999    0.0000000000000000    0.0000000000000000
    -1.6514999999999993    2.8604819087000011    0.0000000000000000
     0.0000000000000000    0.0000000000000000   25.8299999999999983
 Ni  Mo  C   Te
   3   6   3   6
Direct
  0.0000000000000000  0.0000000000000000  0.0000000000000000
  0.6667900000000000  0.3332100000000000  0.3437500000000000
  0.3332100000000000  0.6667900000000000  0.6562500000000000
  0.0000300000000000  0.9999700000000000  0.8752799999999999
  0.9999699999999998  0.0000300000000000  0.1247200000000000
  0.6666400000000000  0.3333600000000000  0.1780300000000000
  0.6666800000000001  0.3333200000000000  0.4728000000000000
  0.3333200000000000  0.6666800000000001  0.5272000000000000
  0.3333600000000000  0.6666400000000000  0.8219700000000000
  0.0000000000000000  0.0000000000000000  0.5000000000000000
  0.6666999999999998  0.3333000000000000  0.8236900000000000
  0.3332999999999999  0.6667000000000000  0.1763100000000000
  0.9998200000000000  0.0001800000000000  0.7179600000000000
  0.0001800000000000  0.9998200000000000  0.2820400000000000
  0.6666400000000000  0.3333600000000000  0.0651700000000000
  0.6665900000000000  0.3334100000000000  0.5929600000000000
  0.3334100000000000  0.6665900000000000  0.4070400000000001
  0.3333600000000000  0.6666400000000000  0.9348300000000000
