 V Zn  N Se 
 1.0000000000000000
     3.3029999999999999    0.0000000000000000    0.0000000000000000
    -1.6514999999999993    2.8604819087000011    0.0000000000000000
     0.0000000000000000    0.0000000000000000   25.8299999999999983
 V   Zn  N   Se 
   3   6   3   6
Direct
  0.0000000000000000  0.0000000000000000  0.0000000000000000
  0.5359000000000000  0.4641000000000000  0.3226600000000000
  0.4641000000000000  0.5359000000000000  0.6773400000000001
  0.0020900000000000  0.9979100000000000  0.8775900000000000
  0.9979100000000000  0.0020900000000000  0.1224100000000000
  0.3291500000000000  0.6708499999999999  0.1946800000000000
  0.5315400000000000  0.4684600000000000  0.4529200000000000
  0.4684600000000000  0.5315400000000000  0.5470800000000000
  0.6708499999999997  0.3291500000000000  0.8053200000000000
  0.0000000000000000  0.0000000000000000  0.5000000000000000
  0.8919500000000000  0.1080500000000000  0.7094100000000000
  0.1080500000000000  0.8919500000000000  0.2905900000000000
  0.1722100000000001  0.8277900000000001  0.7270400000000000
  0.8277899999999999  0.1722100000000000  0.2729600000000000
  0.6663000000000000  0.3337000000000000  0.0448500000000000
  0.7872300000000000  0.2127700000000000  0.6252900000000000
  0.2127699999999999  0.7872300000000000  0.3747100000000000
  0.3336999999999999  0.6663000000000000  0.9551500000000001
