Ru Te In 
 1.0000000000000000
     3.2709999999999999    0.0000000000000000    0.0000000000000000
    -1.6354999999999993    2.8327690957788989    0.0000000000000000
     0.0000000000000000    0.0000000000000000   25.4780000000000015
 Ru  Te  In 
   6   6   3
Direct
  0.9999999999999997  0.9999999999999998  0.5931400000000000
  0.0000000000000000  0.0000000000000000  0.4068600000000000
  0.6666700000000000  0.3333300000000000  0.9264699999999998
  0.6666600000000000  0.3333400000000000  0.7401900000000000
  0.3333400000000000  0.6666600000000000  0.2598100000000000
  0.3333300000000000  0.6666700000000000  0.0735300000000000
  0.9999800000000000  0.0000200000000000  0.7863200000000000
  0.0000199999999999  0.9999799999999998  0.2136800000000000
  0.6666500000000000  0.3333500000000000  0.1196500000000000
  0.6666800000000001  0.3333199999999999  0.5470100000000000
  0.3333199999999999  0.6666800000000001  0.4529900000000000
  0.3333499999999999  0.6666499999999999  0.8803499999999999
  0.0000000000000000  0.0000000000000000  0.0000000000000000
  0.6666700000000000  0.3333300000000000  0.3333300000000000
  0.3333300000000000  0.6666700000000000  0.6666699999999999
