Co Zr  C  S
 1.0000000000000000
     3.3029999999999999    0.0000000000000000    0.0000000000000000
    -1.6514999999999991    2.8604819087000011    0.0000000000000000
     0.0000000000000000    0.0000000000000000   25.8299999999999983
 Co  Zr  C   S
   3   6   3   6
Direct
  0.0000000000000000  0.0000000000000000  0.0000000000000000
  0.6666700000000000  0.3333300000000000  0.3333300000000001
  0.3333300000000000  0.6666700000000000  0.6666700000000001
  0.0000000000000000  0.0000000000000000  0.8824700000000000
  0.0000000000000000  0.0000000000000000  0.1175300000000000
  0.6666600000000000  0.3333400000000000  0.2158000000000000
  0.6666700000000000  0.3333300000000000  0.4508600000000000
  0.3333300000000000  0.6666700000000000  0.5491400000000000
  0.3333400000000000  0.6666600000000000  0.7842000000000001
  0.0000000000000000  0.0000000000000000  0.5000000000000000
  0.6666700000000000  0.3333300000000000  0.8333300000000000
  0.3333300000000000  0.6666700000000000  0.1666700000000000
  0.0000000000000000  0.0000000000000000  0.7144700000000002
  0.0000000000000000  0.0000000000000000  0.2855300000000000
  0.6666700000000000  0.3333300000000000  0.0478000000000000
  0.6666600000000000  0.3333400000000000  0.6188700000000000
  0.3333400000000000  0.6666600000000000  0.3811300000000001
  0.3333300000000000  0.6666700000000000  0.9522000000000000
