Mo Se Ge 
 1.0000000000000000
     3.2690000000000001    0.0000000000000000    0.0000000000000000
    -1.6344999999999994    2.8310370449713305    0.0000000000000000
     0.0000000000000000    0.0000000000000000    8.5470000000000006
 Mo  Se  Ge 
   2   2   1
Direct
  0.6530200000000000  0.3265100000000001  0.8600300000000000
  0.3469800000000000  0.6734900000000000  0.1399700000000000
  0.6194299999999998  0.3097200000000001  0.3166800000000000
  0.3805700000000000  0.6902800000000001  0.6833200000000000
  0.0000000000000000  0.0000000000000000  0.0000000000000000
