Zn Se Ge 
 1.0000000000000000
     3.2709999999999999    0.0000000000000000    0.0000000000000000
    -1.6354999999999993    2.8327690957788989    0.0000000000000000
     0.0000000000000000    0.0000000000000000   25.4780000000000015
 Zn  Se  Ge 
   6   6   3
Direct
  0.9807300000000000  0.0192700000000000  0.5820700000000000
  0.0192700000000000  0.9807299999999999  0.4179300000000000
  0.6952499999999999  0.3047500000000000  0.9150700000000001
  0.5713200000000001  0.4286800000000000  0.7502999999999999
  0.4286800000000000  0.5713200000000001  0.2496999999999999
  0.3047500000000000  0.6952499999999999  0.0849300000000000
  0.9806300000000000  0.0193700000000000  0.8154400000000001
  0.0193700000000000  0.9806300000000000  0.1845600000000000
  0.7238100000000000  0.2761900000000000  0.1510700000000000
  0.6862999999999998  0.3136999999999999  0.5151100000000000
  0.3137000000000000  0.6862999999999999  0.4848900000000000
  0.2761899999999999  0.7238099999999997  0.8489300000000000
  0.0000000000000000  0.0000000000000000  0.0000000000000000
  0.7508200000000000  0.2491800000000000  0.3335200000000000
  0.2491800000000000  0.7508199999999999  0.6664800000000000
