Mn Co  S  N 
 1.0000000000000000
     3.3121000000000000    0.0000000000000000    0.0000000000000000
    -1.6560499999999994    2.8683627398744393    0.0000000000000000
     0.0000000000000000    0.0000000000000000    9.0113000000000003
 Mn  Co  S   N  
   2   2   2   1
Direct
  0.6668500000000001  0.3334300000000000  0.5978500000000000
  0.3331500000000000  0.6665700000000000  0.4021500000000001
  0.6662300000000001  0.3331200000000000  0.9076500000000001
  0.3337700000000001  0.6668800000000000  0.0923500000000000
  0.6665900000000000  0.3332900000000000  0.2983600000000000
  0.3334100000000000  0.6667100000000000  0.7016400000000000
  0.0000000000000000  0.0000000000000000  0.0000000000000000
