Mo  S Sn 
 1.0000000000000000
     3.2690000000000001    0.0000000000000000    0.0000000000000000
    -1.6344999999999994    2.8310370449713305    0.0000000000000000
     0.0000000000000000    0.0000000000000000    8.5470000000000006
 Mo  S   Sn 
   2   2   1
Direct
  0.6663800000000000  0.3331900000000000  0.7344200000000000
  0.3336200000000001  0.6668100000000001  0.2655800000000000
  0.6669099999999999  0.3334600000000000  0.3463400000000000
  0.3330899999999999  0.6665400000000000  0.6536599999999999
  0.0000000000000000  0.0000000000000000  0.0000000000000000
