Sc  S Ge 
 1.0000000000000000
     3.2709999999999999    0.0000000000000000    0.0000000000000000
    -1.6354999999999993    2.8327690957788989    0.0000000000000000
     0.0000000000000000    0.0000000000000000   25.4780000000000015
 Sc  S   Ge 
   6   6   3
Direct
  0.0193799999999999  0.9806199999999998  0.5755600000000000
  0.9806199999999999  0.0193800000000000  0.4244399999999999
  0.7483600000000000  0.2516399999999999  0.9088900000000000
  0.7128100000000001  0.2871900000000000  0.7562200000000000
  0.2871900000000000  0.7128100000000001  0.2437800000000000
  0.2516399999999998  0.7483599999999998  0.0911100000000000
  0.0523200000000000  0.9476799999999999  0.7798400000000000
  0.9476800000000000  0.0523200000000000  0.2201600000000000
  0.5831400000000000  0.4168600000000000  0.1145600000000000
  0.6809500000000001  0.3190499999999999  0.5529800000000000
  0.3190499999999999  0.6809499999999999  0.4470200000000000
  0.4168600000000000  0.5831400000000000  0.8854399999999998
  0.0000000000000000  0.0000000000000000  0.0000000000000000
  0.8509700000000000  0.1490300000000000  0.3282000000000000
  0.1490299999999999  0.8509700000000000  0.6718000000000000
