 Y  S Si 
 1.0000000000000000
     3.2690000000000001    0.0000000000000000    0.0000000000000000
    -1.6344999999999994    2.8310370449713305    0.0000000000000000
     0.0000000000000000    0.0000000000000000    8.5470000000000006
 Y   S   Si 
   2   2   1
Direct
  0.6663999999999999  0.3332000000000000  0.7279300000000000
  0.3336000000000000  0.6668000000000001  0.2720700000000000
  0.6667999999999999  0.3334000000000000  0.3538100000000000
  0.3331999999999999  0.6666000000000000  0.6461900000000000
  0.0000000000000000  0.0000000000000000  0.0000000000000000
