Rh Te As 
 1.0000000000000000
     3.2709999999999999    0.0000000000000000    0.0000000000000000
    -1.6354999999999993    2.8327690957788989    0.0000000000000000
     0.0000000000000000    0.0000000000000000   25.4780000000000015
 Rh  Te  As 
   6   6   3
Direct
  0.9999999999999997  0.9999999999999998  0.6123900000000000
  0.0000000000000000  0.0000000000000000  0.3876100000000000
  0.6666700000000000  0.3333300000000000  0.9457199999999999
  0.6666700000000000  0.3333300000000000  0.7209400000000000
  0.3333300000000000  0.6666700000000000  0.2790600000000000
  0.3333300000000000  0.6666700000000000  0.0542800000000000
  0.9999999999999997  0.9999999999999998  0.7788300000000000
  0.0000000000000000  0.0000000000000000  0.2211700000000000
  0.6666700000000000  0.3333300000000000  0.1121600000000000
  0.6666700000000000  0.3333300000000000  0.5545000000000000
  0.3333300000000000  0.6666700000000000  0.4455000000000000
  0.3333300000000000  0.6666700000000000  0.8878400000000000
  0.0000000000000000  0.0000000000000000  0.0000000000000000
  0.6666700000000000  0.3333300000000000  0.3333300000000000
  0.3333300000000000  0.6666700000000000  0.6666699999999999
