Cr Ru  C Se
 1.0000000000000000
     3.3029999999999999    0.0000000000000000    0.0000000000000000
    -1.6514999999999993    2.8604819087000011    0.0000000000000000
     0.0000000000000000    0.0000000000000000   25.8299999999999983
 Cr  Ru  C   Se
   3   6   3   6
Direct
  0.0000000000000000  0.0000000000000000  0.0000000000000000
  0.9631699999999999  0.0368300000000000  0.3286600000000000
  0.0368299999999999  0.9631700000000000  0.6713400000000000
  0.0008700000000000  0.9991300000000000  0.9112200000000000
  0.9991300000000000  0.0008700000000000  0.0887800000000000
  0.9957000000000000  0.0043000000000000  0.1794500000000000
  0.6188199999999999  0.3811800000000000  0.4599400000000000
  0.3811800000000000  0.6188200000000000  0.5400600000000000
  0.0043000000000000  0.9957000000000000  0.8205500000000000
  0.0000000000000000  0.0000000000000000  0.5000000000000000
  0.3376099999999999  0.6623900000000000  0.8094100000000000
  0.6623900000000000  0.3376100000000000  0.1905900000000000
  0.7032500000000000  0.2967500000000000  0.7007000000000000
  0.2967500000000000  0.7032500000000000  0.2993000000000000
  0.6661200000000000  0.3338800000000000  0.0490000000000000
  0.7026199999999998  0.2973800000000000  0.5905200000000000
  0.2973800000000000  0.7026200000000001  0.4094800000000001
  0.3338800000000000  0.6661200000000000  0.9510000000000002
