 V Se  C 
 1.0000000000000000
     3.2709999999999999    0.0000000000000000    0.0000000000000000
    -1.6354999999999991    2.8327690957788989    0.0000000000000000
     0.0000000000000000    0.0000000000000000   25.4780000000000015
 V   Se  C  
   6   6   3
Direct
  0.9999999999999997  0.9999999999999998  0.6265600000000000
  0.0000000000000000  0.0000000000000000  0.3734400000000000
  0.6666700000000000  0.3333300000000000  0.9598900000000000
  0.6666700000000000  0.3333300000000000  0.7067700000000000
  0.3333300000000000  0.6666700000000000  0.2932300000000000
  0.3333300000000000  0.6666700000000000  0.0401100000000000
  0.9999999999999997  0.9999999999999998  0.7724000000000000
  0.0000000000000000  0.0000000000000000  0.2276000000000000
  0.6666700000000000  0.3333300000000000  0.1057300000000000
  0.6666700000000000  0.3333300000000000  0.5609300000000000
  0.3333300000000000  0.6666700000000000  0.4390700000000000
  0.3333300000000000  0.6666700000000000  0.8942699999999999
  0.0000000000000000  0.0000000000000000  0.0000000000000000
  0.6666700000000000  0.3333300000000000  0.3333300000000000
  0.3333300000000000  0.6666700000000000  0.6666699999999999
