Hf Te  B 
 1.0000000000000000
     3.2709999999999999    0.0000000000000000    0.0000000000000000
    -1.6354999999999993    2.8327690957788989    0.0000000000000000
     0.0000000000000000    0.0000000000000000   25.4780000000000015
 Hf  Te  B  
   6   6   3
Direct
  0.0674099999999999  0.9325899999999998  0.6366299999999999
  0.9325900000000000  0.0674100000000000  0.3633700000000000
  0.6644000000000000  0.3356000000000000  0.9720200000000000
  0.7279400000000000  0.2720600000000000  0.6926299999999999
  0.2720599999999999  0.7279399999999998  0.3073700000000000
  0.3355999999999999  0.6643999999999999  0.0279800000000000
  0.9696999999999999  0.0303000000000000  0.7768599999999998
  0.0302999999999999  0.9696999999999998  0.2231400000000000
  0.5642200000000001  0.4357800000000000  0.1141000000000000
  0.6119799999999999  0.3880200000000000  0.5588900000000000
  0.3880199999999999  0.6119800000000000  0.4411099999999999
  0.4357800000000000  0.5642200000000001  0.8859000000000000
  0.0000000000000000  0.0000000000000000  0.0000000000000000
  0.6099500000000000  0.3900500000000000  0.3367200000000000
  0.3900500000000000  0.6099500000000000  0.6632800000000000
