Ir  B Se 
 1.0000000000000000
     3.3435999999999999    0.0000000000000000    0.0000000000000000
    -1.6717999999999993    2.8956425400936490    0.0000000000000000
     0.0000000000000000    0.0000000000000000   11.5808999999999997
 Ir  B   Se 
   4   2   2
Direct
  0.2727099999999998  0.7272899999999999  0.4037900000000000
  0.7272899999999998  0.2727100000000000  0.5962100000000000
  0.7271800000000000  0.2728200000000000  0.9039000000000000
  0.2728199999999999  0.7271800000000000  0.0961000000000000
  0.0000000000000000  0.0000000000000000  0.0000000000000000
  0.0000000000000000  0.0000000000000000  0.5000000000000000
  0.2297200000000000  0.7702800000000000  0.7501100000000001
  0.7702800000000000  0.2297200000000000  0.2498900000000000
