Cu  S As 
 1.0000000000000000
     3.2709999999999999    0.0000000000000000    0.0000000000000000
    -1.6354999999999993    2.8327690957788989    0.0000000000000000
     0.0000000000000000    0.0000000000000000   25.4780000000000015
 Cu  S   As 
   6   6   3
Direct
  0.2337899999999999  0.7662099999999997  0.5903900000000000
  0.7662099999999999  0.2337900000000000  0.4096100000000000
  0.5012500000000000  0.4987500000000000  0.9223400000000000
  0.6370800000000000  0.3629200000000000  0.7547000000000000
  0.3629200000000000  0.6370799999999999  0.2453000000000000
  0.4987499999999999  0.5012499999999999  0.0776600000000000
  0.9224100000000000  0.0775900000000000  0.8472100000000000
  0.0775899999999999  0.9224099999999997  0.1527900000000000
  0.7827200000000000  0.2172800000000000  0.1694599999999999
  0.6858800000000000  0.3141200000000000  0.4952099999999999
  0.3141200000000000  0.6858800000000000  0.5047900000000000
  0.2172799999999999  0.7827199999999997  0.8305399999999999
  0.0000000000000000  0.0000000000000000  0.0000000000000000
  0.8750300000000000  0.1249700000000000  0.3226400000000000
  0.1249700000000000  0.8750300000000000  0.6773600000000000
