Cr Pt  C Te
 1.0000000000000000
     3.3029999999999999    0.0000000000000000    0.0000000000000000
    -1.6514999999999993    2.8604819087000011    0.0000000000000000
     0.0000000000000000    0.0000000000000000   25.8299999999999983
 Cr  Pt  C   Te
   3   6   3   6
Direct
  0.0000000000000000  0.0000000000000000  0.0000000000000000
  0.8528800000000000  0.1471200000000000  0.3227400000000000
  0.1471200000000000  0.8528800000000000  0.6772600000000000
  0.8795799999999999  0.1204200000000000  0.8697900000000000
  0.1204199999999999  0.8795799999999999  0.1302100000000000
  0.7950199999999999  0.2049800000000000  0.2182500000000000
  0.6770599999999998  0.3229400000000000  0.4554800000000000
  0.3229399999999999  0.6770600000000000  0.5445200000000000
  0.2049799999999999  0.7950199999999998  0.7817499999999999
  0.0000000000000000  0.0000000000000000  0.5000000000000000
  0.4183499999999999  0.5816500000000000  0.8376700000000002
  0.5816500000000000  0.4183500000000000  0.1623300000000000
  0.8299899999999999  0.1700100000000000  0.7169100000000000
  0.1700099999999999  0.8299900000000000  0.2830900000000000
  0.6673100000000000  0.3326900000000000  0.0545700000000000
  0.6454800000000001  0.3545200000000000  0.6085300000000000
  0.3545199999999999  0.6454800000000001  0.3914700000000000
  0.3326899999999999  0.6673100000000000  0.9454300000000000
