Ru Te As 
 1.0000000000000000
     3.2690000000000001    0.0000000000000000    0.0000000000000000
    -1.6344999999999994    2.8310370449713305    0.0000000000000000
     0.0000000000000000    0.0000000000000000    8.5470000000000006
 Ru  Te  As 
   2   2   1
Direct
  0.6666699999999999  0.3333400000000000  0.8654900000000000
  0.3333299999999999  0.6666600000000000  0.1345100000000000
  0.6666099999999999  0.3333000000000000  0.3178200000000000
  0.3333900000000000  0.6667000000000000  0.6821800000000000
  0.0000000000000000  0.0000000000000000  0.0000000000000000
