Ni Ir Se  C 
 1.0000000000000000
     3.3121000000000000    0.0000000000000000    0.0000000000000000
    -1.6560499999999991    2.8683627398744393    0.0000000000000000
     0.0000000000000000    0.0000000000000000    9.0113000000000003
 Ni  Ir  Se  C  
   2   2   2   1
Direct
  0.6666800000000001  0.3333400000000000  0.5758000000000000
  0.3333200000000001  0.6666600000000000  0.4242000000000000
  0.6666200000000000  0.3333100000000000  0.8959800000000000
  0.3333800000000000  0.6666900000000000  0.1040200000000000
  0.6666500000000000  0.3333300000000000  0.2934800000000000
  0.3333500000000000  0.6666700000000000  0.7065200000000000
  0.0000000000000000  0.0000000000000000  0.0000000000000000
