Pt  S In 
 1.0000000000000000
     3.2709999999999999    0.0000000000000000    0.0000000000000000
    -1.6354999999999993    2.8327690957788989    0.0000000000000000
     0.0000000000000000    0.0000000000000000   25.4780000000000015
 Pt  S   In 
   6   6   3
Direct
  0.9999999999999997  0.9999999999999998  0.5621400000000000
  0.0000000000000000  0.0000000000000000  0.4378599999999999
  0.6666600000000000  0.3333400000000000  0.8954800000000001
  0.6666600000000000  0.3333400000000000  0.7711899999999998
  0.3333400000000000  0.6666600000000000  0.2288100000000000
  0.3333400000000000  0.6666600000000000  0.1045200000000000
  0.0000000000000000  0.0000000000000000  0.8266800000000000
  0.9999999999999997  0.9999999999999998  0.1733200000000000
  0.6666700000000000  0.3333300000000000  0.1600200000000000
  0.6666700000000000  0.3333300000000000  0.5066500000000000
  0.3333300000000000  0.6666700000000000  0.4933500000000000
  0.3333300000000000  0.6666700000000000  0.8399799999999999
  0.0000000000000000  0.0000000000000000  0.0000000000000000
  0.6666600000000000  0.3333400000000000  0.3333400000000000
  0.3333400000000000  0.6666600000000000  0.6666599999999999
