 V  S Pb 
 1.0000000000000000
     3.2690000000000001    0.0000000000000000    0.0000000000000000
    -1.6344999999999994    2.8310370449713305    0.0000000000000000
     0.0000000000000000    0.0000000000000000    8.5470000000000006
 V   S   Pb 
   2   2   1
Direct
  0.6665600000000000  0.3332800000000001  0.7249600000000000
  0.3334400000000000  0.6667200000000001  0.2750400000000000
  0.6667700000000000  0.3333900000000001  0.3472999999999999
  0.3332300000000001  0.6666100000000001  0.6526999999999999
  0.0000000000000000  0.0000000000000000  0.0000000000000000
