Ca Sc  C Se
 1.0000000000000000
     3.3029999999999999    0.0000000000000000    0.0000000000000000
    -1.6514999999999991    2.8604819087000011    0.0000000000000000
     0.0000000000000000    0.0000000000000000   25.8299999999999983
 Ca  Sc  C   Se
   3   6   3   6
Direct
  0.0000000000000000  0.0000000000000000  0.0000000000000000
  0.6666700000000000  0.3333300000000000  0.3333300000000001
  0.3333300000000000  0.6666700000000000  0.6666700000000001
  0.0000000000000000  0.0000000000000000  0.8744700000000000
  0.0000000000000000  0.0000000000000000  0.1255300000000000
  0.6666700000000000  0.3333300000000000  0.2078000000000000
  0.6666700000000000  0.3333300000000000  0.4588700000000001
  0.3333300000000000  0.6666700000000000  0.5411300000000000
  0.3333300000000000  0.6666700000000000  0.7922000000000001
  0.0000000000000000  0.0000000000000000  0.5000000000000000
  0.6666700000000000  0.3333300000000000  0.8333300000000000
  0.3333300000000000  0.6666700000000000  0.1666700000000000
  0.0000000000000000  0.0000000000000000  0.7312900000000000
  0.0000000000000000  0.0000000000000000  0.2687100000000000
  0.6666700000000000  0.3333300000000000  0.0646200000000000
  0.6666700000000000  0.3333300000000000  0.6020500000000000
  0.3333300000000000  0.6666700000000000  0.3979500000000000
  0.3333300000000000  0.6666700000000000  0.9353800000000000
