Ag Zn  C Se
 1.0000000000000000
     3.3029999999999999    0.0000000000000000    0.0000000000000000
    -1.6514999999999993    2.8604819087000011    0.0000000000000000
     0.0000000000000000    0.0000000000000000   25.8299999999999983
 Ag  Zn  C   Se
   3   6   3   6
Direct
  0.0000000000000000  0.0000000000000000  0.0000000000000000
  0.6666700000000000  0.3333300000000000  0.3333300000000001
  0.3333300000000000  0.6666700000000000  0.6666700000000001
  0.0000000000000000  0.0000000000000000  0.8750100000000001
  0.0000000000000000  0.0000000000000000  0.1249900000000000
  0.6666700000000000  0.3333300000000000  0.2083400000000000
  0.6666700000000000  0.3333300000000000  0.4583200000000000
  0.3333300000000000  0.6666700000000000  0.5416800000000001
  0.3333300000000000  0.6666700000000000  0.7916600000000000
  0.0000000000000000  0.0000000000000000  0.5000000000000000
  0.6666800000000001  0.3333200000000000  0.8333300000000000
  0.3333200000000000  0.6666800000000001  0.1666700000000000
  0.9999899999999998  0.0000100000000000  0.7280100000000000
  0.0000100000000001  0.9999900000000002  0.2719900000000000
  0.6666700000000000  0.3333300000000000  0.0613400000000000
  0.6666700000000000  0.3333300000000000  0.6053300000000000
  0.3333300000000000  0.6666700000000000  0.3946700000000000
  0.3333300000000000  0.6666700000000000  0.9386600000000000
