Os Se As 
 1.0000000000000000
     3.2690000000000001    0.0000000000000000    0.0000000000000000
    -1.6344999999999994    2.8310370449713305    0.0000000000000000
     0.0000000000000000    0.0000000000000000    8.5470000000000006
 Os  Se  As 
   2   2   1
Direct
  0.6071000000000000  0.3035500000000000  0.8562300000000000
  0.3929000000000000  0.6964500000000000  0.1437700000000000
  0.4180299999999999  0.2090100000000001  0.3256000000000000
  0.5819700000000000  0.7909900000000000  0.6744000000000000
  0.0000000000000000  0.0000000000000000  0.0000000000000000
