Pt Te Sn 
 1.0000000000000000
     3.2709999999999999    0.0000000000000000    0.0000000000000000
    -1.6354999999999993    2.8327690957788989    0.0000000000000000
     0.0000000000000000    0.0000000000000000   25.4780000000000015
 Pt  Te  Sn 
   6   6   3
Direct
  0.0307600000000000  0.9692399999999999  0.5986000000000000
  0.9692400000000000  0.0307600000000000  0.4013999999999999
  0.6585299999999999  0.3414700000000000  0.9320000000000001
  0.7038999999999999  0.2960999999999999  0.7344800000000000
  0.2960999999999998  0.7038999999999999  0.2655200000000000
  0.3414700000000000  0.6585299999999999  0.0680000000000000
  0.0346100000000000  0.9653899999999999  0.8006199999999999
  0.9653899999999997  0.0346100000000000  0.1993800000000000
  0.6715800000000000  0.3284200000000000  0.1342900000000000
  0.6933800000000000  0.3066200000000000  0.5323000000000000
  0.3066199999999999  0.6933800000000000  0.4677000000000000
  0.3284199999999999  0.6715799999999998  0.8657099999999999
  0.0000000000000000  0.0000000000000000  0.0000000000000000
  0.6398000000000000  0.3602000000000000  0.3334900000000000
  0.3602000000000000  0.6398000000000000  0.6665099999999999
