Sc Ni  C Se
 1.0000000000000000
     3.3029999999999999    0.0000000000000000    0.0000000000000000
    -1.6514999999999993    2.8604819087000011    0.0000000000000000
     0.0000000000000000    0.0000000000000000   25.8299999999999983
 Sc  Ni  C   Se
   3   6   3   6
Direct
  0.0000000000000000  0.0000000000000000  0.0000000000000000
  0.3431200000000000  0.6568800000000000  0.3233600000000000
  0.6568800000000000  0.3431200000000000  0.6766400000000000
  0.9998399999999997  0.0001600000000000  0.8870800000000000
  0.0001600000000000  0.9998400000000000  0.1129200000000000
  0.3338400000000000  0.6661600000000000  0.1819700000000000
  0.4151399999999999  0.5848600000000000  0.4626500000000001
  0.5848600000000002  0.4151400000000001  0.5373500000000000
  0.6661599999999998  0.3338400000000000  0.8180300000000000
  0.0000000000000000  0.0000000000000000  0.5000000000000000
  0.9994999999999998  0.0005000000000000  0.8192000000000000
  0.0005000000000000  0.9995000000000001  0.1808000000000000
  0.3251500000000000  0.6748499999999999  0.7058500000000001
  0.6748499999999999  0.3251500000000000  0.2941500000000000
  0.6667400000000000  0.3332600000000000  0.0522900000000000
  0.1464300000000000  0.8535700000000001  0.5989600000000000
  0.8535700000000001  0.1464300000000000  0.4010400000000001
  0.3332599999999999  0.6667400000000000  0.9477100000000001
