Co Sc  N Se 
 1.0000000000000000
     3.3029999999999999    0.0000000000000000    0.0000000000000000
    -1.6514999999999991    2.8604819087000011    0.0000000000000000
     0.0000000000000000    0.0000000000000000   25.8299999999999983
 Co  Sc  N   Se 
   3   6   3   6
Direct
  0.0000000000000000  0.0000000000000000  0.0000000000000000
  0.6666600000000000  0.3333400000000000  0.3333200000000000
  0.3333400000000000  0.6666600000000000  0.6666800000000002
  0.9999899999999998  0.0000100000000000  0.8596600000000000
  0.0000100000000001  0.9999900000000002  0.1403400000000000
  0.6666800000000001  0.3333200000000000  0.1929100000000000
  0.6666700000000000  0.3333300000000000  0.4737200000000000
  0.3333300000000000  0.6666700000000000  0.5262800000000000
  0.3333200000000000  0.6666800000000001  0.8070900000000000
  0.0000000000000000  0.0000000000000000  0.5000000000000000
  0.6666600000000000  0.3333400000000000  0.8334000000000000
  0.3333400000000000  0.6666600000000000  0.1666000000000000
  0.0000200000000001  0.9999800000000001  0.7180299999999999
  0.9999800000000000  0.0000200000000000  0.2819700000000000
  0.6666700000000000  0.3333300000000000  0.0513400000000000
  0.6666600000000000  0.3333400000000000  0.6153200000000000
  0.3333400000000000  0.6666600000000000  0.3846800000000000
  0.3333300000000000  0.6666700000000000  0.9486599999999999
