Mn Cu  C Te
 1.0000000000000000
     3.3029999999999999    0.0000000000000000    0.0000000000000000
    -1.6514999999999993    2.8604819087000011    0.0000000000000000
     0.0000000000000000    0.0000000000000000   25.8299999999999983
 Mn  Cu  C   Te
   3   6   3   6
Direct
  0.0000000000000000  0.0000000000000000  0.0000000000000000
  0.9328199999999999  0.0671800000000000  0.3162700000000000
  0.0671800000000000  0.9328200000000000  0.6837299999999999
  0.0214200000000000  0.9785800000000000  0.8701000000000000
  0.9785799999999998  0.0214200000000000  0.1299000000000000
  0.7036600000000000  0.2963400000000000  0.1984000000000000
  0.7225400000000000  0.2774600000000000  0.4536500000000000
  0.2774600000000000  0.7225400000000000  0.5463500000000000
  0.2963400000000000  0.7036600000000000  0.8016000000000000
  0.0000000000000000  0.0000000000000000  0.5000000000000000
  0.7952500000000000  0.2047500000000000  0.8106800000000000
  0.2047500000000000  0.7952500000000000  0.1893200000000000
  0.7613199999999999  0.2386800000000000  0.7342300000000000
  0.2386800000000001  0.7613200000000001  0.2657700000000000
  0.6705300000000000  0.3294700000000000  0.0544700000000000
  0.5667200000000000  0.4332800000000000  0.6226700000000001
  0.4332799999999999  0.5667200000000000  0.3773300000000000
  0.3294700000000000  0.6705300000000000  0.9455300000000001
