Cr Pd  C Se
 1.0000000000000000
     3.3029999999999999    0.0000000000000000    0.0000000000000000
    -1.6514999999999993    2.8604819087000011    0.0000000000000000
     0.0000000000000000    0.0000000000000000   25.8299999999999983
 Cr  Pd  C   Se
   3   6   3   6
Direct
  0.0000000000000000  0.0000000000000000  0.0000000000000000
  0.8367900000000001  0.1632100000000000  0.3269200000000000
  0.1632099999999999  0.8367900000000000  0.6730800000000000
  0.9677100000000000  0.0322900000000000  0.8487700000000000
  0.0322900000000000  0.9677100000000000  0.1512300000000000
  0.7670300000000000  0.2329700000000000  0.2346600000000000
  0.6721000000000000  0.3279000000000000  0.4581800000000000
  0.3278999999999999  0.6721000000000000  0.5418200000000000
  0.2329700000000000  0.7670300000000000  0.7653400000000000
  0.0000000000000000  0.0000000000000000  0.5000000000000000
  0.6387400000000000  0.3612600000000000  0.8352300000000000
  0.3612600000000000  0.6387400000000000  0.1647700000000000
  0.8437800000000000  0.1562200000000000  0.7031500000000001
  0.1562200000000000  0.8437800000000001  0.2968500000000000
  0.6682799999999999  0.3317200000000000  0.0460100000000000
  0.6583400000000000  0.3416600000000000  0.6044800000000000
  0.3416600000000000  0.6583400000000000  0.3955200000000000
  0.3317199999999999  0.6682800000000000  0.9539900000000000
