Re  S  B 
 1.0000000000000000
     3.2709999999999999    0.0000000000000000    0.0000000000000000
    -1.6354999999999993    2.8327690957788989    0.0000000000000000
     0.0000000000000000    0.0000000000000000   25.4780000000000015
 Re  S   B  
   6   6   3
Direct
  0.9999900000000000  0.0000100000000000  0.6326199999999997
  0.0000100000000000  0.9999899999999999  0.3673800000000000
  0.6666800000000001  0.3333199999999999  0.9659700000000000
  0.6666700000000000  0.3333300000000000  0.7006800000000000
  0.3333300000000000  0.6666700000000000  0.2993200000000000
  0.3333199999999999  0.6666800000000001  0.0340300000000000
  0.9999600000000000  0.0000400000000000  0.7645199999999999
  0.0000399999999999  0.9999599999999998  0.2354800000000000
  0.6667400000000000  0.3332600000000000  0.0978500000000000
  0.6667100000000000  0.3332900000000000  0.5688200000000000
  0.3332900000000000  0.6667100000000000  0.4311800000000000
  0.3332600000000000  0.6667400000000000  0.9021500000000000
  0.0000000000000000  0.0000000000000000  0.0000000000000000
  0.6666700000000000  0.3333300000000000  0.3333199999999999
  0.3333300000000000  0.6666700000000000  0.6666800000000001
