Pt Se In 
 1.0000000000000000
     3.2709999999999999    0.0000000000000000    0.0000000000000000
    -1.6354999999999993    2.8327690957788989    0.0000000000000000
     0.0000000000000000    0.0000000000000000   25.4780000000000015
 Pt  Se  In 
   6   6   3
Direct
  0.9999999999999997  0.9999999999999998  0.5835399999999999
  0.0000000000000000  0.0000000000000000  0.4164600000000000
  0.6666600000000000  0.3333400000000000  0.9168699999999999
  0.6666700000000000  0.3333300000000000  0.7498000000000000
  0.3333300000000000  0.6666700000000000  0.2502000000000000
  0.3333400000000000  0.6666600000000000  0.0831300000000000
  0.0000000000000000  0.0000000000000000  0.8079700000000000
  0.9999999999999997  0.9999999999999998  0.1920300000000000
  0.6666700000000000  0.3333300000000000  0.1413000000000000
  0.6666700000000000  0.3333300000000000  0.5253600000000000
  0.3333300000000000  0.6666700000000000  0.4746400000000000
  0.3333300000000000  0.6666700000000000  0.8587000000000000
  0.0000000000000000  0.0000000000000000  0.0000000000000000
  0.6666600000000000  0.3333400000000000  0.3333300000000000
  0.3333400000000000  0.6666600000000000  0.6666699999999999
