Zn Te As 
 1.0000000000000000
     3.2709999999999999    0.0000000000000000    0.0000000000000000
    -1.6354999999999993    2.8327690957788989    0.0000000000000000
     0.0000000000000000    0.0000000000000000   25.4780000000000015
 Zn  Te  As 
   6   6   3
Direct
  0.0000000000000000  0.0000000000000000  0.6119500000000000
  0.9999999999999997  0.9999999999999998  0.3880500000000000
  0.6666700000000000  0.3333300000000000  0.9452799999999999
  0.6666700000000000  0.3333300000000000  0.7213900000000000
  0.3333300000000000  0.6666700000000000  0.2786100000000000
  0.3333300000000000  0.6666700000000000  0.0547200000000000
  0.9999999999999997  0.9999999999999998  0.7900700000000001
  0.0000000000000000  0.0000000000000000  0.2099300000000000
  0.6666700000000000  0.3333300000000000  0.1234000000000000
  0.6666700000000000  0.3333300000000000  0.5432700000000000
  0.3333300000000000  0.6666700000000000  0.4567300000000000
  0.3333300000000000  0.6666700000000000  0.8766000000000000
  0.0000000000000000  0.0000000000000000  0.0000000000000000
  0.6666600000000000  0.3333400000000000  0.3333300000000000
  0.3333400000000000  0.6666600000000000  0.6666699999999999
