Pt Se Sb 
 1.0000000000000000
     3.2709999999999999    0.0000000000000000    0.0000000000000000
    -1.6354999999999993    2.8327690957788989    0.0000000000000000
     0.0000000000000000    0.0000000000000000   25.4780000000000015
 Pt  Se  Sb 
   6   6   3
Direct
  0.0126200000000000  0.9873799999999999  0.6003500000000001
  0.9873800000000000  0.0126200000000000  0.3996499999999999
  0.6761300000000000  0.3238700000000000  0.9324200000000000
  0.6794600000000000  0.3205399999999999  0.7357700000000000
  0.3205399999999999  0.6794599999999998  0.2642300000000000
  0.3238699999999999  0.6761299999999999  0.0675800000000000
  0.9950500000000000  0.0049500000000000  0.8086400000000000
  0.0049499999999999  0.9950499999999998  0.1913600000000000
  0.6244000000000000  0.3756000000000000  0.1420400000000000
  0.6431600000000000  0.3568399999999999  0.5257200000000000
  0.3568400000000000  0.6431600000000000  0.4742800000000000
  0.3756000000000000  0.6244000000000000  0.8579599999999999
  0.0000000000000000  0.0000000000000000  0.0000000000000000
  0.6415800000000000  0.3584200000000000  0.3323999999999999
  0.3584200000000000  0.6415799999999999  0.6676000000000000
