Ag Ti  N  S 
 1.0000000000000000
     3.3029999999999999    0.0000000000000000    0.0000000000000000
    -1.6514999999999991    2.8604819087000011    0.0000000000000000
     0.0000000000000000    0.0000000000000000   25.8299999999999983
 Ag  Ti  N   S  
   3   6   3   6
Direct
  0.0000000000000000  0.0000000000000000  0.0000000000000000
  0.5443000000000000  0.4557000000000000  0.3381400000000000
  0.4557000000000000  0.5443000000000000  0.6618600000000000
  0.9926399999999997  0.0073600000000000  0.8693900000000000
  0.0073600000000000  0.9926400000000000  0.1306100000000000
  0.7248900000000000  0.2751100000000000  0.2389700000000000
  0.6615100000000000  0.3384900000000000  0.4726900000000000
  0.3384900000000000  0.6615100000000000  0.5273099999999999
  0.2751099999999999  0.7248900000000000  0.7610300000000001
  0.0000000000000000  0.0000000000000000  0.5000000000000000
  0.6672100000000000  0.3327900000000000  0.8848100000000000
  0.3327900000000000  0.6672100000000000  0.1151900000000000
  0.9471699999999997  0.0528300000000000  0.7384100000000000
  0.0528300000000000  0.9471700000000001  0.2615900000000000
  0.5563800000000000  0.4436200000000000  0.0795100000000000
  0.6381800000000000  0.3618200000000000  0.5809200000000000
  0.3618200000000000  0.6381800000000000  0.4190800000000000
  0.4436200000000000  0.5563800000000000  0.9204900000000000
