Hg  S Sb 
 1.0000000000000000
     3.2709999999999999    0.0000000000000000    0.0000000000000000
    -1.6354999999999993    2.8327690957788989    0.0000000000000000
     0.0000000000000000    0.0000000000000000   25.4780000000000015
 Hg  S   Sb 
   6   6   3
Direct
  0.9852999999999997  0.0147000000000000  0.5748100000000000
  0.0147000000000000  0.9852999999999998  0.4251900000000000
  0.6609100000000000  0.3390900000000000  0.9069100000000000
  0.6675500000000000  0.3324500000000000  0.7593500000000000
  0.3324499999999999  0.6675499999999999  0.2406500000000000
  0.3390900000000000  0.6609100000000000  0.0930900000000000
  0.9867899999999999  0.0132100000000000  0.8310200000000000
  0.0132100000000000  0.9867899999999999  0.1689800000000000
  0.6566300000000000  0.3433700000000000  0.1657900000000000
  0.6537700000000000  0.3462300000000000  0.5030100000000000
  0.3462300000000000  0.6537700000000000  0.4969900000000000
  0.3433700000000000  0.6566300000000000  0.8342100000000000
  0.0000000000000000  0.0000000000000000  0.0000000000000000
  0.7271700000000000  0.2728300000000000  0.3325500000000000
  0.2728300000000000  0.7271700000000000  0.6674500000000000
