Mg Hg  N  S 
 1.0000000000000000
     3.3029999999999999    0.0000000000000000    0.0000000000000000
    -1.6514999999999991    2.8604819087000011    0.0000000000000000
     0.0000000000000000    0.0000000000000000   25.8299999999999983
 Mg  Hg  N   S  
   3   6   3   6
Direct
  0.0000000000000000  0.0000000000000000  0.0000000000000000
  0.6666700000000000  0.3333300000000000  0.3333300000000001
  0.3333300000000000  0.6666700000000000  0.6666700000000001
  0.0000000000000000  0.0000000000000000  0.8860900000000000
  0.0000000000000000  0.0000000000000000  0.1139100000000000
  0.6666700000000000  0.3333300000000000  0.2193700000000000
  0.6666600000000000  0.3333400000000000  0.4472700000000001
  0.3333400000000000  0.6666600000000000  0.5527300000000001
  0.3333300000000000  0.6666700000000000  0.7806300000000000
  0.0000000000000000  0.0000000000000000  0.5000000000000000
  0.6666700000000000  0.3333300000000000  0.8334100000000000
  0.3333300000000000  0.6666700000000000  0.1665900000000000
  0.9999899999999998  0.0000100000000000  0.7123200000000000
  0.0000100000000001  0.9999900000000002  0.2876800000000000
  0.6666600000000000  0.3333400000000000  0.0456500000000000
  0.6666700000000000  0.3333300000000000  0.6210100000000001
  0.3333300000000000  0.6666700000000000  0.3789900000000000
  0.3333400000000000  0.6666600000000000  0.9543500000000001
