Ag Se Ge 
 1.0000000000000000
     3.2709999999999999    0.0000000000000000    0.0000000000000000
    -1.6354999999999993    2.8327690957788989    0.0000000000000000
     0.0000000000000000    0.0000000000000000   25.4780000000000015
 Ag  Se  Ge 
   6   6   3
Direct
  0.9885100000000000  0.0114900000000000  0.5956800000000000
  0.0114899999999999  0.9885099999999998  0.4043200000000000
  0.6551500000000000  0.3448500000000000  0.9290100000000000
  0.6783500000000000  0.3216500000000000  0.7376600000000000
  0.3216500000000000  0.6783500000000000  0.2623400000000000
  0.3448500000000000  0.6551500000000000  0.0709900000000000
  0.0234100000000000  0.9765900000000000  0.8107900000000000
  0.9765900000000000  0.0234100000000000  0.1892100000000000
  0.6899100000000000  0.3100900000000000  0.1441100000000000
  0.6433199999999998  0.3566799999999999  0.5225600000000000
  0.3566799999999999  0.6433200000000000  0.4774399999999999
  0.3100900000000000  0.6899100000000000  0.8558900000000000
  0.0000000000000000  0.0000000000000000  0.0000000000000000
  0.6664800000000000  0.3335199999999999  0.3333300000000000
  0.3335199999999999  0.6664799999999999  0.6666699999999999
