Hg Se  P 
 1.0000000000000000
     3.2709999999999999    0.0000000000000000    0.0000000000000000
    -1.6354999999999993    2.8327690957788989    0.0000000000000000
     0.0000000000000000    0.0000000000000000   25.4780000000000015
 Hg  Se  P  
   6   6   3
Direct
  0.0090299999999999  0.9909699999999998  0.5933600000000000
  0.9909700000000000  0.0090300000000000  0.4066400000000000
  0.6482100000000000  0.3517900000000000  0.9355599999999999
  0.6859300000000000  0.3140700000000000  0.7520000000000000
  0.3140699999999999  0.6859299999999999  0.2479999999999999
  0.3517899999999999  0.6482099999999998  0.0644400000000000
  0.9952600000000000  0.0047400000000000  0.8326000000000000
  0.0047399999999999  0.9952599999999998  0.1674000000000000
  0.7012900000000000  0.2987100000000000  0.1325900000000000
  0.6485999999999998  0.3513999999999999  0.5185500000000000
  0.3514000000000000  0.6485999999999998  0.4814500000000000
  0.2987099999999998  0.7012899999999997  0.8674100000000000
  0.0000000000000000  0.0000000000000000  0.0000000000000000
  0.5775899999999999  0.4224099999999999  0.3312100000000000
  0.4224100000000000  0.5775900000000000  0.6687900000000000
