Ta  S Pb 
 1.0000000000000000
     3.2690000000000001    0.0000000000000000    0.0000000000000000
    -1.6344999999999994    2.8310370449713305    0.0000000000000000
     0.0000000000000000    0.0000000000000000    8.5470000000000006
 Ta  S   Pb 
   2   2   1
Direct
  0.6662700000000000  0.3331300000000000  0.7256000000000000
  0.3337299999999999  0.6668700000000000  0.2744000000000000
  0.6670500000000000  0.3335200000000000  0.3592000000000000
  0.3329499999999999  0.6664800000000000  0.6408000000000000
  0.0000000000000000  0.0000000000000000  0.0000000000000000
