Cu Ni  N  S 
 1.0000000000000000
     3.3029999999999999    0.0000000000000000    0.0000000000000000
    -1.6514999999999991    2.8604819087000011    0.0000000000000000
     0.0000000000000000    0.0000000000000000   25.8299999999999983
 Cu  Ni  N   S  
   3   6   3   6
Direct
  0.0000000000000000  0.0000000000000000  0.0000000000000000
  0.6666700000000000  0.3333300000000000  0.3333800000000000
  0.3333300000000000  0.6666700000000000  0.6666200000000000
  0.9999899999999998  0.0000100000000000  0.8781600000000001
  0.0000100000000001  0.9999900000000002  0.1218400000000000
  0.6666800000000001  0.3333200000000000  0.2117500000000000
  0.6666700000000000  0.3333300000000000  0.4549300000000000
  0.3333300000000000  0.6666700000000000  0.5450700000000001
  0.3333200000000000  0.6666800000000001  0.7882500000000000
  0.0000000000000000  0.0000000000000000  0.5000000000000000
  0.6668299999999998  0.3331700000000000  0.8342200000000000
  0.3331699999999999  0.6668300000000000  0.1657800000000000
  0.9999600000000000  0.0000400000000000  0.7384300000000000
  0.0000400000000001  0.9999600000000000  0.2615700000000000
  0.6667900000000000  0.3332100000000000  0.0719800000000000
  0.6666299999999999  0.3333700000000000  0.5949100000000000
  0.3333700000000000  0.6666299999999999  0.4050900000000000
  0.3332100000000000  0.6667900000000000  0.9280200000000000
