Ta  S  C 
 1.0000000000000000
     3.2709999999999999    0.0000000000000000    0.0000000000000000
    -1.6354999999999991    2.8327690957788989    0.0000000000000000
     0.0000000000000000    0.0000000000000000   25.4780000000000015
 Ta  S   C  
   6   6   3
Direct
  0.9999999999999997  0.9999999999999998  0.6200699999999999
  0.0000000000000000  0.0000000000000000  0.3799300000000000
  0.6666700000000000  0.3333300000000000  0.9533999999999999
  0.6666700000000000  0.3333300000000000  0.7132600000000000
  0.3333300000000000  0.6666700000000000  0.2867400000000000
  0.3333300000000000  0.6666700000000000  0.0466000000000000
  0.9999999999999997  0.9999999999999998  0.7768299999999999
  0.0000000000000000  0.0000000000000000  0.2231700000000000
  0.6666700000000000  0.3333300000000000  0.1101600000000000
  0.6666700000000000  0.3333300000000000  0.5565000000000000
  0.3333300000000000  0.6666700000000000  0.4434999999999999
  0.3333300000000000  0.6666700000000000  0.8898400000000000
  0.0000000000000000  0.0000000000000000  0.0000000000000000
  0.6666700000000000  0.3333300000000000  0.3333300000000000
  0.3333300000000000  0.6666700000000000  0.6666699999999999
