Ag Te Bi 
 1.0000000000000000
     3.2690000000000001    0.0000000000000000    0.0000000000000000
    -1.6344999999999994    2.8310370449713305    0.0000000000000000
     0.0000000000000000    0.0000000000000000    8.5470000000000006
 Ag  Te  Bi 
   2   2   1
Direct
  0.6784999999999998  0.3392500000000000  0.7910500000000000
  0.3215000000000000  0.6607500000000001  0.2089500000000000
  0.6298000000000000  0.3149000000000000  0.4064900000000000
  0.3702000000000000  0.6851000000000002  0.5935100000000000
  0.0000000000000000  0.0000000000000000  0.0000000000000000
