Zn  S  N 
 1.0000000000000000
     3.2709999999999999    0.0000000000000000    0.0000000000000000
    -1.6354999999999991    2.8327690957788989    0.0000000000000000
     0.0000000000000000    0.0000000000000000   25.4780000000000015
 Zn  S   N  
   6   6   3
Direct
  0.0000000000000000  0.0000000000000000  0.6211400000000000
  0.9999999999999997  0.9999999999999998  0.3788599999999999
  0.6666700000000000  0.3333300000000000  0.9544700000000000
  0.6666700000000000  0.3333300000000000  0.7121899999999999
  0.3333300000000000  0.6666700000000000  0.2878100000000000
  0.3333300000000000  0.6666700000000000  0.0455300000000000
  0.9999999999999997  0.9999999999999998  0.7709700000000000
  0.0000000000000000  0.0000000000000000  0.2290300000000000
  0.6666700000000000  0.3333300000000000  0.1043000000000000
  0.6666700000000000  0.3333300000000000  0.5623600000000000
  0.3333300000000000  0.6666700000000000  0.4376399999999999
  0.3333300000000000  0.6666700000000000  0.8956999999999999
  0.0000000000000000  0.0000000000000000  0.0000000000000000
  0.6666700000000000  0.3333300000000000  0.3333300000000000
  0.3333300000000000  0.6666700000000000  0.6666699999999999
