Li Au  C  S
 1.0000000000000000
     3.3029999999999999    0.0000000000000000    0.0000000000000000
    -1.6514999999999991    2.8604819087000011    0.0000000000000000
     0.0000000000000000    0.0000000000000000   25.8299999999999983
 Li  Au  C   S
   3   6   3   6
Direct
  0.0000000000000000  0.0000000000000000  0.0000000000000000
  0.6666700000000000  0.3333300000000000  0.3333300000000001
  0.3333300000000000  0.6666700000000000  0.6666700000000001
  0.0000000000000000  0.0000000000000000  0.8827000000000000
  0.0000000000000000  0.0000000000000000  0.1173000000000000
  0.6666700000000000  0.3333300000000000  0.2160300000000000
  0.6666700000000000  0.3333300000000000  0.4506400000000000
  0.3333300000000000  0.6666700000000000  0.5493600000000000
  0.3333300000000000  0.6666700000000000  0.7839699999999999
  0.0000000000000000  0.0000000000000000  0.5000000000000000
  0.6666700000000000  0.3333300000000000  0.8333300000000000
  0.3333300000000000  0.6666700000000000  0.1666700000000000
  0.0000000000000000  0.0000000000000000  0.7216900000000001
  0.0000000000000000  0.0000000000000000  0.2783100000000000
  0.6666700000000000  0.3333300000000000  0.0550200000000000
  0.6666700000000000  0.3333300000000000  0.6116400000000000
  0.3333300000000000  0.6666700000000000  0.3883600000000000
  0.3333300000000000  0.6666700000000000  0.9449800000000000
