Fe Ru  C Te
 1.0000000000000000
     3.3029999999999999    0.0000000000000000    0.0000000000000000
    -1.6514999999999993    2.8604819087000011    0.0000000000000000
     0.0000000000000000    0.0000000000000000   25.8299999999999983
 Fe  Ru  C   Te
   3   6   3   6
Direct
  0.0000000000000000  0.0000000000000000  0.0000000000000000
  0.6300200000000000  0.3699800000000000  0.3526600000000000
  0.3699799999999999  0.6300200000000000  0.6473400000000000
  0.0623000000000000  0.9377000000000000  0.8643400000000000
  0.9377000000000000  0.0623000000000000  0.1356600000000000
  0.7646800000000000  0.2353200000000000  0.2204700000000000
  0.7449900000000000  0.2550100000000000  0.4609400000000000
  0.2550100000000000  0.7449900000000000  0.5390600000000000
  0.2353200000000000  0.7646800000000000  0.7795299999999999
  0.0000000000000000  0.0000000000000000  0.5000000000000000
  0.7309199999999998  0.2690800000000000  0.8446000000000000
  0.2690800000000000  0.7309200000000000  0.1554000000000000
  0.9072000000000000  0.0928000000000000  0.7273500000000001
  0.0927999999999999  0.9071999999999999  0.2726500000000000
  0.6596299999999999  0.3403700000000000  0.0568300000000000
  0.6888099999999999  0.3111900000000000  0.6013300000000000
  0.3111900000000000  0.6888100000000000  0.3986700000000000
  0.3403700000000000  0.6596300000000000  0.9431700000000000
