Cu Hg  C  S
 1.0000000000000000
     3.3029999999999999    0.0000000000000000    0.0000000000000000
    -1.6514999999999991    2.8604819087000011    0.0000000000000000
     0.0000000000000000    0.0000000000000000   25.8299999999999983
 Cu  Hg  C   S
   3   6   3   6
Direct
  0.0000000000000000  0.0000000000000000  0.0000000000000000
  0.6666700000000000  0.3333300000000000  0.3333300000000001
  0.3333300000000000  0.6666700000000000  0.6666700000000001
  0.0000000000000000  0.0000000000000000  0.8830800000000000
  0.0000000000000000  0.0000000000000000  0.1169200000000000
  0.6666700000000000  0.3333300000000000  0.2164200000000000
  0.6666700000000000  0.3333300000000000  0.4502500000000000
  0.3333300000000000  0.6666700000000000  0.5497500000000000
  0.3333300000000000  0.6666700000000000  0.7835800000000001
  0.0000000000000000  0.0000000000000000  0.5000000000000000
  0.6666700000000000  0.3333300000000000  0.8333300000000000
  0.3333300000000000  0.6666700000000000  0.1666700000000000
  0.0000000000000000  0.0000000000000000  0.7151700000000000
  0.0000000000000000  0.0000000000000000  0.2848300000000000
  0.6666700000000000  0.3333300000000000  0.0485000000000000
  0.6666700000000000  0.3333300000000000  0.6181700000000000
  0.3333300000000000  0.6666700000000000  0.3818300000000000
  0.3333300000000000  0.6666700000000000  0.9515000000000000
