Cu Ni  N Se 
 1.0000000000000000
     3.3029999999999999    0.0000000000000000    0.0000000000000000
    -1.6514999999999991    2.8604819087000011    0.0000000000000000
     0.0000000000000000    0.0000000000000000   25.8299999999999983
 Cu  Ni  N   Se 
   3   6   3   6
Direct
  0.0000000000000000  0.0000000000000000  0.0000000000000000
  0.9383099999999999  0.0616900000000000  0.3332800000000000
  0.0616900000000000  0.9383100000000000  0.6667200000000000
  0.2029900000000001  0.7970100000000001  0.8817100000000001
  0.7970100000000000  0.2029900000000000  0.1182900000000000
  0.5586099999999999  0.4413900000000001  0.1972600000000000
  0.7091000000000000  0.2909000000000000  0.4587100000000000
  0.2909000000000000  0.7091000000000000  0.5412900000000000
  0.4413900000000000  0.5586100000000001  0.8027400000000001
  0.0000000000000000  0.0000000000000000  0.5000000000000000
  0.9579899999999999  0.0420100000000000  0.8368800000000001
  0.0420100000000000  0.9579900000000001  0.1631200000000000
  0.9284100000000000  0.0715900000000000  0.7500000000000000
  0.0715900000000000  0.9284100000000000  0.2500000000000000
  0.4986400000000000  0.5013600000000000  0.0655300000000000
  0.5980500000000000  0.4019500000000000  0.5943600000000000
  0.4019500000000000  0.5980500000000000  0.4056400000000000
  0.5013600000000000  0.4986400000000000  0.9344700000000000
