Pt  S Si 
 1.0000000000000000
     3.2709999999999999    0.0000000000000000    0.0000000000000000
    -1.6354999999999993    2.8327690957788989    0.0000000000000000
     0.0000000000000000    0.0000000000000000   25.4780000000000015
 Pt  S   Si 
   6   6   3
Direct
  0.0000300000000000  0.9999700000000000  0.6104300000000000
  0.9999700000000000  0.0000300000000000  0.3895700000000000
  0.6666900000000000  0.3333099999999999  0.9437500000000000
  0.6667100000000000  0.3332900000000000  0.7228999999999999
  0.3332900000000000  0.6667100000000000  0.2771000000000000
  0.3333100000000000  0.6666900000000000  0.0562500000000000
  0.9999600000000000  0.0000400000000000  0.7897699999999997
  0.0000399999999999  0.9999599999999998  0.2102300000000000
  0.6666900000000000  0.3333099999999999  0.1230900000000000
  0.6666600000000000  0.3333400000000000  0.5435600000000000
  0.3333400000000000  0.6666600000000000  0.4564400000000000
  0.3333100000000000  0.6666900000000000  0.8769100000000000
  0.0000000000000000  0.0000000000000000  0.0000000000000000
  0.6666600000000000  0.3333400000000000  0.3333300000000000
  0.3333400000000000  0.6666600000000000  0.6666699999999999
