Ca Ir  C Te
 1.0000000000000000
     3.3029999999999999    0.0000000000000000    0.0000000000000000
    -1.6514999999999993    2.8604819087000011    0.0000000000000000
     0.0000000000000000    0.0000000000000000   25.8299999999999983
 Ca  Ir  C   Te
   3   6   3   6
Direct
  0.0000000000000000  0.0000000000000000  0.0000000000000000
  0.6666700000000000  0.3333300000000000  0.3333200000000000
  0.3333300000000000  0.6666700000000000  0.6666800000000002
  0.0000000000000000  0.0000000000000000  0.8749000000000000
  0.0000000000000000  0.0000000000000000  0.1251000000000000
  0.6666700000000000  0.3333300000000000  0.2082200000000000
  0.6666700000000000  0.3333300000000000  0.4584400000000001
  0.3333300000000000  0.6666700000000000  0.5415600000000000
  0.3333300000000000  0.6666700000000000  0.7917800000000002
  0.0000000000000000  0.0000000000000000  0.5000000000000000
  0.6666700000000000  0.3333300000000000  0.8333300000000000
  0.3333300000000000  0.6666700000000000  0.1666700000000000
  0.0000000000000000  0.0000000000000000  0.7318000000000000
  0.0000000000000000  0.0000000000000000  0.2682000000000000
  0.6666700000000000  0.3333300000000000  0.0651300000000000
  0.6666700000000000  0.3333300000000000  0.6015400000000000
  0.3333300000000000  0.6666700000000000  0.3984600000000000
  0.3333300000000000  0.6666700000000000  0.9348700000000000
