Ca Ag  C Te
 1.0000000000000000
     3.3029999999999999    0.0000000000000000    0.0000000000000000
    -1.6514999999999993    2.8604819087000011    0.0000000000000000
     0.0000000000000000    0.0000000000000000   25.8299999999999983
 Ca  Ag  C   Te
   3   6   3   6
Direct
  0.0000000000000000  0.0000000000000000  0.0000000000000000
  0.6666700000000000  0.3333300000000000  0.3333000000000000
  0.3333300000000000  0.6666700000000000  0.6667000000000001
  0.0000000000000000  0.0000000000000000  0.8768800000000001
  0.0000000000000000  0.0000000000000000  0.1231200000000000
  0.6666700000000000  0.3333300000000000  0.2102200000000000
  0.6666700000000000  0.3333300000000000  0.4564500000000000
  0.3333300000000000  0.6666700000000000  0.5435500000000000
  0.3333300000000000  0.6666700000000000  0.7897800000000000
  0.0000000000000000  0.0000000000000000  0.5000000000000000
  0.6666700000000000  0.3333300000000000  0.8333300000000000
  0.3333300000000000  0.6666700000000000  0.1666700000000000
  0.0000000000000000  0.0000000000000000  0.7230600000000000
  0.0000000000000000  0.0000000000000000  0.2769400000000000
  0.6666700000000000  0.3333300000000000  0.0564100000000000
  0.6666700000000000  0.3333300000000000  0.6102500000000000
  0.3333300000000000  0.6666700000000000  0.3897500000000000
  0.3333300000000000  0.6666700000000000  0.9435900000000000
