Zr Te Si 
 1.0000000000000000
     3.2709999999999999    0.0000000000000000    0.0000000000000000
    -1.6354999999999993    2.8327690957788989    0.0000000000000000
     0.0000000000000000    0.0000000000000000   25.4780000000000015
 Zr  Te  Si 
   6   6   3
Direct
  0.9999999999999997  0.9999999999999998  0.6214100000000000
  0.0000000000000000  0.0000000000000000  0.3785900000000000
  0.6666700000000000  0.3333300000000000  0.9547399999999998
  0.6666700000000000  0.3333300000000000  0.7119300000000000
  0.3333300000000000  0.6666700000000000  0.2880700000000000
  0.3333300000000000  0.6666700000000000  0.0452600000000000
  0.0000000000000000  0.0000000000000000  0.7681299999999999
  0.9999999999999997  0.9999999999999998  0.2318699999999999
  0.6666700000000000  0.3333300000000000  0.1014600000000000
  0.6666700000000000  0.3333300000000000  0.5652000000000000
  0.3333300000000000  0.6666700000000000  0.4348000000000000
  0.3333300000000000  0.6666700000000000  0.8985400000000000
  0.0000000000000000  0.0000000000000000  0.0000000000000000
  0.6666700000000000  0.3333300000000000  0.3333300000000000
  0.3333300000000000  0.6666700000000000  0.6666699999999999
