Sc  C Se
 1.0000000000000000
     3.3029999999999999    0.0000000000000000    0.0000000000000000
    -1.6514999999999991    2.8604819087000011    0.0000000000000000
     0.0000000000000000    0.0000000000000000   25.8299999999999983
 Sc  C   Se
   9   3   6
Direct
  0.0000000000000000  0.0000000000000000  0.0000000000000000
  0.6666700000000000  0.3333300000000000  0.3333300000000001
  0.3333300000000000  0.6666700000000000  0.6666700000000001
  0.0000000000000000  0.0000000000000000  0.8752100000000000
  0.0000000000000000  0.0000000000000000  0.1247900000000000
  0.6666700000000000  0.3333300000000000  0.2085400000000000
  0.6666700000000000  0.3333300000000000  0.4581300000000000
  0.3333300000000000  0.6666700000000000  0.5418700000000000
  0.3333300000000000  0.6666700000000000  0.7914600000000001
  0.0000000000000000  0.0000000000000000  0.5000000000000000
  0.6666700000000000  0.3333300000000000  0.8333300000000000
  0.3333300000000000  0.6666700000000000  0.1666700000000000
  0.0000000000000000  0.0000000000000000  0.7274400000000000
  0.0000000000000000  0.0000000000000000  0.2725600000000000
  0.6666700000000000  0.3333300000000000  0.0607700000000000
  0.6666700000000000  0.3333300000000000  0.6059000000000000
  0.3333300000000000  0.6666700000000000  0.3941000000000001
  0.3333300000000000  0.6666700000000000  0.9392300000000001
