Cd Te Sb 
 1.0000000000000000
     3.2709999999999999    0.0000000000000000    0.0000000000000000
    -1.6354999999999993    2.8327690957788989    0.0000000000000000
     0.0000000000000000    0.0000000000000000   25.4780000000000015
 Cd  Te  Sb 
   6   6   3
Direct
  0.9999999999999997  0.9999999999999998  0.5982100000000000
  0.0000000000000000  0.0000000000000000  0.4017900000000000
  0.6666700000000000  0.3333300000000000  0.9315499999999998
  0.6666700000000000  0.3333300000000000  0.7351200000000000
  0.3333300000000000  0.6666700000000000  0.2648800000000000
  0.3333300000000000  0.6666700000000000  0.0684500000000000
  0.9999999999999997  0.9999999999999998  0.8023799999999998
  0.0000000000000000  0.0000000000000000  0.1976200000000000
  0.6666700000000000  0.3333300000000000  0.1357100000000000
  0.6666800000000001  0.3333199999999999  0.5309600000000000
  0.3333199999999999  0.6666800000000001  0.4690400000000000
  0.3333300000000000  0.6666700000000000  0.8642900000000000
  0.0000000000000000  0.0000000000000000  0.0000000000000000
  0.6666600000000000  0.3333400000000000  0.3333300000000000
  0.3333400000000000  0.6666600000000000  0.6666699999999999
