Ag Au  N  S 
 1.0000000000000000
     3.3029999999999999    0.0000000000000000    0.0000000000000000
    -1.6514999999999991    2.8604819087000011    0.0000000000000000
     0.0000000000000000    0.0000000000000000   25.8299999999999983
 Ag  Au  N   S  
   3   6   3   6
Direct
  0.0000000000000000  0.0000000000000000  0.0000000000000000
  0.6666700000000000  0.3333300000000000  0.3333300000000001
  0.3333300000000000  0.6666700000000000  0.6666700000000001
  0.0000000000000000  0.0000000000000000  0.8804100000000000
  0.0000000000000000  0.0000000000000000  0.1195900000000000
  0.6666700000000000  0.3333300000000000  0.2136800000000001
  0.6666600000000000  0.3333400000000000  0.4529600000000000
  0.3333400000000000  0.6666600000000000  0.5470400000000000
  0.3333300000000000  0.6666700000000000  0.7863200000000001
  0.0000000000000000  0.0000000000000000  0.5000000000000000
  0.6666700000000000  0.3333300000000000  0.8334300000000000
  0.3333300000000000  0.6666700000000000  0.1665700000000000
  0.9999899999999998  0.0000100000000000  0.7291100000000000
  0.0000100000000001  0.9999900000000002  0.2708900000000000
  0.6666700000000000  0.3333300000000000  0.0624400000000000
  0.6666700000000000  0.3333300000000000  0.6042300000000000
  0.3333300000000000  0.6666700000000000  0.3957700000000000
  0.3333300000000000  0.6666700000000000  0.9375600000000001
