Cu  S Pb 
 1.0000000000000000
     3.2690000000000001    0.0000000000000000    0.0000000000000000
    -1.6344999999999994    2.8310370449713305    0.0000000000000000
     0.0000000000000000    0.0000000000000000    8.5470000000000006
 Cu  S   Pb 
   2   2   1
Direct
  0.6759399999999998  0.3379700000000000  0.7500100000000000
  0.3240600000000000  0.6620300000000001  0.2499900000000000
  0.6261299999999997  0.3130700000000000  0.5012300000000000
  0.3738700000000000  0.6869300000000002  0.4987700000000000
  0.0000000000000000  0.0000000000000000  0.0000000000000000
