Sc Te Sn 
 1.0000000000000000
     3.2709999999999999    0.0000000000000000    0.0000000000000000
    -1.6354999999999993    2.8327690957788989    0.0000000000000000
     0.0000000000000000    0.0000000000000000   25.4780000000000015
 Sc  Te  Sn 
   6   6   3
Direct
  0.9999999999999997  0.9999999999999998  0.5850000000000000
  0.0000000000000000  0.0000000000000000  0.4150000000000000
  0.6666700000000000  0.3333300000000000  0.9183299999999999
  0.6666700000000000  0.3333300000000000  0.7483300000000001
  0.3333300000000000  0.6666700000000000  0.2516700000000000
  0.3333300000000000  0.6666700000000000  0.0816700000000000
  0.9999999999999997  0.9999999999999998  0.7825900000000000
  0.0000000000000000  0.0000000000000000  0.2174099999999999
  0.6666700000000000  0.3333300000000000  0.1159300000000000
  0.6666700000000000  0.3333300000000000  0.5507500000000000
  0.3333300000000000  0.6666700000000000  0.4492499999999999
  0.3333300000000000  0.6666700000000000  0.8840700000000000
  0.0000000000000000  0.0000000000000000  0.0000000000000000
  0.6666700000000000  0.3333300000000000  0.3333300000000000
  0.3333300000000000  0.6666700000000000  0.6666699999999999
