Cd Se Al 
 1.0000000000000000
     3.2709999999999999    0.0000000000000000    0.0000000000000000
    -1.6354999999999993    2.8327690957788989    0.0000000000000000
     0.0000000000000000    0.0000000000000000   25.4780000000000015
 Cd  Se  Al 
   6   6   3
Direct
  0.0061900000000000  0.9938100000000000  0.5860200000000000
  0.9938100000000000  0.0061900000000000  0.4139800000000000
  0.6619300000000000  0.3380699999999999  0.9192800000000000
  0.6683600000000000  0.3316400000000000  0.7479799999999999
  0.3316400000000000  0.6683600000000000  0.2520200000000000
  0.3380700000000000  0.6619300000000000  0.0807200000000000
  0.0180899999999999  0.9819099999999997  0.8173899999999999
  0.9819099999999999  0.0180900000000000  0.1826100000000000
  0.6861199999999998  0.3138799999999999  0.1500000000000000
  0.6872000000000000  0.3128000000000000  0.5156100000000000
  0.3128000000000000  0.6871999999999999  0.4843899999999999
  0.3138800000000000  0.6861200000000000  0.8500000000000000
  0.0000000000000000  0.0000000000000000  0.0000000000000000
  0.6743999999999999  0.3256000000000000  0.3327599999999999
  0.3256000000000000  0.6744000000000000  0.6672399999999998
