Ag Ru  C Se
 1.0000000000000000
     3.3029999999999999    0.0000000000000000    0.0000000000000000
    -1.6514999999999993    2.8604819087000011    0.0000000000000000
     0.0000000000000000    0.0000000000000000   25.8299999999999983
 Ag  Ru  C   Se
   3   6   3   6
Direct
  0.0000000000000000  0.0000000000000000  0.0000000000000000
  0.7078999999999999  0.2921000000000000  0.3330500000000000
  0.2920999999999999  0.7079000000000000  0.6669500000000000
  0.0062100000000000  0.9937900000000000  0.8779600000000001
  0.9937900000000000  0.0062100000000000  0.1220400000000000
  0.5723700000000000  0.4276300000000001  0.2019000000000000
  0.7298599999999998  0.2701400000000000  0.4620900000000000
  0.2701399999999999  0.7298600000000000  0.5379100000000000
  0.4276300000000000  0.5723700000000000  0.7981000000000001
  0.0000000000000000  0.0000000000000000  0.5000000000000000
  0.7438300000000000  0.2561700000000000  0.8082300000000001
  0.2561700000000000  0.7438300000000000  0.1917700000000000
  0.9311899999999999  0.0688100000000000  0.7377300000000000
  0.0688100000000000  0.9311900000000000  0.2622700000000000
  0.6591500000000000  0.3408500000000000  0.0800000000000000
  0.7157300000000000  0.2842700000000000  0.5906600000000000
  0.2842700000000000  0.7157300000000000  0.4093400000000000
  0.3408500000000000  0.6591500000000000  0.9200000000000000
