Li Hg  C Te
 1.0000000000000000
     3.3029999999999999    0.0000000000000000    0.0000000000000000
    -1.6514999999999993    2.8604819087000011    0.0000000000000000
     0.0000000000000000    0.0000000000000000   25.8299999999999983
 Li  Hg  C   Te
   3   6   3   6
Direct
  0.0000000000000000  0.0000000000000000  0.0000000000000000
  0.6666700000000000  0.3333300000000000  0.3333300000000001
  0.3333300000000000  0.6666700000000000  0.6666700000000001
  0.0000000000000000  0.0000000000000000  0.8833800000000002
  0.0000000000000000  0.0000000000000000  0.1166200000000000
  0.6666700000000000  0.3333300000000000  0.2167100000000000
  0.6666700000000000  0.3333300000000000  0.4499600000000000
  0.3333300000000000  0.6666700000000000  0.5500400000000000
  0.3333300000000000  0.6666700000000000  0.7832900000000000
  0.0000000000000000  0.0000000000000000  0.5000000000000000
  0.6666700000000000  0.3333300000000000  0.8333300000000000
  0.3333300000000000  0.6666700000000000  0.1666700000000000
  0.0000000000000000  0.0000000000000000  0.7085399999999999
  0.0000000000000000  0.0000000000000000  0.2914600000000000
  0.6666700000000000  0.3333300000000000  0.0418800000000000
  0.6666600000000000  0.3333400000000000  0.6247900000000001
  0.3333400000000000  0.6666600000000000  0.3752100000000000
  0.3333300000000000  0.6666700000000000  0.9581200000000000
