Mo  S Ge 
 1.0000000000000000
     3.2709999999999999    0.0000000000000000    0.0000000000000000
    -1.6354999999999993    2.8327690957788989    0.0000000000000000
     0.0000000000000000    0.0000000000000000   25.4780000000000015
 Mo  S   Ge 
   6   6   3
Direct
  0.6464299999999998  0.3535699999999999  0.5825500000000000
  0.3535700000000000  0.6464299999999998  0.4174500000000000
  0.9991000000000000  0.0009000000000000  0.9084100000000001
  0.9806700000000000  0.0193300000000000  0.7454499999999999
  0.0193300000000000  0.9806699999999999  0.2545500000000000
  0.0008999999999999  0.9990999999999999  0.0915900000000000
  0.3140899999999999  0.6859099999999998  0.7733900000000000
  0.6859100000000000  0.3140900000000000  0.2266100000000000
  0.3343199999999999  0.6656799999999999  0.1180800000000000
  0.3130999999999999  0.6868999999999998  0.5545600000000001
  0.6869000000000000  0.3131000000000000  0.4454400000000000
  0.6656799999999999  0.3343200000000000  0.8819199999999999
  0.0000000000000000  0.0000000000000000  0.0000000000000000
  0.6862900000000000  0.3137099999999999  0.3360000000000000
  0.3137100000000000  0.6862900000000000  0.6640000000000000
