Mo  S  P 
 1.0000000000000000
     3.2709999999999999    0.0000000000000000    0.0000000000000000
    -1.6354999999999993    2.8327690957788989    0.0000000000000000
     0.0000000000000000    0.0000000000000000   25.4780000000000015
 Mo  S   P  
   6   6   3
Direct
  0.7923900000000000  0.2076100000000000  0.6402300000000000
  0.2076099999999999  0.7923899999999998  0.3597700000000000
  0.7178499999999999  0.2821500000000000  0.9516000000000000
  0.8827199999999998  0.1172800000000000  0.7506699999999999
  0.1172800000000000  0.8827199999999998  0.2493300000000000
  0.2821500000000000  0.7178499999999999  0.0484000000000000
  0.2166300000000000  0.7833700000000000  0.7799800000000000
  0.7833700000000000  0.2166300000000000  0.2200199999999999
  0.7115899999999999  0.2884099999999999  0.0918300000000000
  0.6120699999999999  0.3879300000000000  0.5631600000000000
  0.3879300000000000  0.6120700000000000  0.4368400000000000
  0.2884100000000000  0.7115899999999999  0.9081699999999999
  0.0000000000000000  0.0000000000000000  0.0000000000000000
  0.8696700000000001  0.1303300000000000  0.3283500000000000
  0.1303300000000000  0.8696699999999999  0.6716500000000000
