Ni Hg  C Te
 1.0000000000000000
     3.3029999999999999    0.0000000000000000    0.0000000000000000
    -1.6514999999999993    2.8604819087000011    0.0000000000000000
     0.0000000000000000    0.0000000000000000   25.8299999999999983
 Ni  Hg  C   Te
   3   6   3   6
Direct
  0.0000000000000000  0.0000000000000000  0.0000000000000000
  0.6666700000000000  0.3333300000000000  0.3333300000000001
  0.3333300000000000  0.6666700000000000  0.6666700000000001
  0.0000000000000000  0.0000000000000000  0.8782600000000000
  0.0000000000000000  0.0000000000000000  0.1217400000000000
  0.6666700000000000  0.3333300000000000  0.2115900000000000
  0.6666700000000000  0.3333300000000000  0.4550800000000000
  0.3333300000000000  0.6666700000000000  0.5449200000000000
  0.3333300000000000  0.6666700000000000  0.7884100000000002
  0.0000000000000000  0.0000000000000000  0.5000000000000000
  0.6666700000000000  0.3333300000000000  0.8333300000000000
  0.3333300000000000  0.6666700000000000  0.1666700000000000
  0.0000000000000000  0.0000000000000000  0.7208000000000001
  0.0000000000000000  0.0000000000000000  0.2792000000000000
  0.6666700000000000  0.3333300000000000  0.0541300000000000
  0.6666700000000000  0.3333300000000000  0.6125300000000000
  0.3333300000000000  0.6666700000000000  0.3874700000000000
  0.3333300000000000  0.6666700000000000  0.9458700000000000
