Cu  V Se  N 
 1.0000000000000000
     3.3121000000000000    0.0000000000000000    0.0000000000000000
    -1.6560499999999994    2.8683627398744393    0.0000000000000000
     0.0000000000000000    0.0000000000000000    9.0113000000000003
 Cu  V   Se  N  
   2   2   2   1
Direct
  0.6666700000000001  0.3333400000000000  0.5765900000000000
  0.3333300000000001  0.6666600000000000  0.4234100000000000
  0.6666400000000001  0.3333200000000000  0.9096500000000001
  0.3333600000000001  0.6666800000000001  0.0903500000000000
  0.6666700000000001  0.3333400000000000  0.2698600000000000
  0.3333300000000001  0.6666600000000000  0.7301400000000000
  0.0000000000000000  0.0000000000000000  0.0000000000000000
