Zn Se  C 
 1.0000000000000000
     3.3121000000000000    0.0000000000000000    0.0000000000000000
    -1.6560499999999991    2.8683627398744393    0.0000000000000000
     0.0000000000000000    0.0000000000000000    9.0113000000000003
 Zn  Se  C  
   4   2   1
Direct
  0.6666700000000001  0.3333400000000000  0.5779100000000000
  0.3333300000000001  0.6666600000000000  0.4220900000000000
  0.6666700000000001  0.3333400000000000  0.9111900000000001
  0.3333300000000001  0.6666600000000000  0.0888100000000000
  0.6666500000000000  0.3333300000000000  0.2757800000000000
  0.3333500000000000  0.6666700000000000  0.7242200000000000
  0.0000000000000000  0.0000000000000000  0.0000000000000000
