Cu Pd  C  S
 1.0000000000000000
     3.3029999999999999    0.0000000000000000    0.0000000000000000
    -1.6514999999999991    2.8604819087000011    0.0000000000000000
     0.0000000000000000    0.0000000000000000   25.8299999999999983
 Cu  Pd  C   S
   3   6   3   6
Direct
  0.0000000000000000  0.0000000000000000  0.0000000000000000
  0.6666700000000000  0.3333300000000000  0.3333300000000001
  0.3333300000000000  0.6666700000000000  0.6666700000000001
  0.0000000000000000  0.0000000000000000  0.8748700000000000
  0.0000000000000000  0.0000000000000000  0.1251300000000000
  0.6666700000000000  0.3333300000000000  0.2082100000000000
  0.6666700000000000  0.3333300000000000  0.4584600000000000
  0.3333300000000000  0.6666700000000000  0.5415400000000000
  0.3333300000000000  0.6666700000000000  0.7917900000000001
  0.0000000000000000  0.0000000000000000  0.5000000000000000
  0.6666700000000000  0.3333300000000000  0.8333400000000000
  0.3333300000000000  0.6666700000000000  0.1666600000000000
  0.0000000000000000  0.0000000000000000  0.7215100000000000
  0.0000000000000000  0.0000000000000000  0.2784900000000000
  0.6666700000000000  0.3333300000000000  0.0548400000000000
  0.6666700000000000  0.3333300000000000  0.6118300000000000
  0.3333300000000000  0.6666700000000000  0.3881700000000000
  0.3333300000000000  0.6666700000000000  0.9451600000000000
