Ir Te Ge 
 1.0000000000000000
     3.2709999999999999    0.0000000000000000    0.0000000000000000
    -1.6354999999999993    2.8327690957788989    0.0000000000000000
     0.0000000000000000    0.0000000000000000   25.4780000000000015
 Ir  Te  Ge 
   6   6   3
Direct
  0.9999999999999997  0.9999999999999998  0.6189700000000000
  0.0000000000000000  0.0000000000000000  0.3810299999999999
  0.6666700000000000  0.3333300000000000  0.9523100000000000
  0.6666700000000000  0.3333300000000000  0.7143599999999999
  0.3333300000000000  0.6666700000000000  0.2856400000000000
  0.3333300000000000  0.6666700000000000  0.0476900000000000
  0.9999999999999997  0.9999999999999998  0.7791599999999999
  0.0000000000000000  0.0000000000000000  0.2208400000000000
  0.6666700000000000  0.3333300000000000  0.1125000000000000
  0.6666700000000000  0.3333300000000000  0.5541700000000001
  0.3333300000000000  0.6666700000000000  0.4458299999999999
  0.3333300000000000  0.6666700000000000  0.8875000000000000
  0.0000000000000000  0.0000000000000000  0.0000000000000000
  0.6666700000000000  0.3333300000000000  0.3333300000000000
  0.3333300000000000  0.6666700000000000  0.6666699999999999
