Hf Te Bi 
 1.0000000000000000
     3.2709999999999999    0.0000000000000000    0.0000000000000000
    -1.6354999999999993    2.8327690957788989    0.0000000000000000
     0.0000000000000000    0.0000000000000000   25.4780000000000015
 Hf  Te  Bi 
   6   6   3
Direct
  0.0060800000000000  0.9939200000000000  0.5874400000000000
  0.9939199999999999  0.0060800000000000  0.4125599999999999
  0.7517800000000000  0.2482200000000000  0.9212000000000000
  0.7498899999999999  0.2501100000000000  0.7442499999999997
  0.2501100000000000  0.7498899999999999  0.2557500000000000
  0.2482200000000000  0.7517800000000000  0.0788000000000000
  0.0821399999999999  0.9178599999999998  0.7853800000000000
  0.9178599999999999  0.0821400000000000  0.2146199999999999
  0.5921300000000000  0.4078700000000000  0.1213400000000000
  0.6670000000000000  0.3330000000000000  0.5452600000000000
  0.3330000000000000  0.6670000000000000  0.4547399999999999
  0.4078700000000000  0.5921300000000000  0.8786600000000000
  0.0000000000000000  0.0000000000000000  0.0000000000000000
  0.7379900000000000  0.2620100000000000  0.3326600000000000
  0.2620100000000000  0.7379899999999998  0.6673400000000000
