Ti Au  C  S
 1.0000000000000000
     3.3029999999999999    0.0000000000000000    0.0000000000000000
    -1.6514999999999991    2.8604819087000011    0.0000000000000000
     0.0000000000000000    0.0000000000000000   25.8299999999999983
 Ti  Au  C   S
   3   6   3   6
Direct
  0.0000000000000000  0.0000000000000000  0.0000000000000000
  0.6666700000000000  0.3333300000000000  0.3333300000000001
  0.3333300000000000  0.6666700000000000  0.6666700000000001
  0.0000000000000000  0.0000000000000000  0.8807199999999999
  0.0000000000000000  0.0000000000000000  0.1192800000000000
  0.6666700000000000  0.3333300000000000  0.2140600000000000
  0.6666700000000000  0.3333300000000000  0.4526100000000000
  0.3333300000000000  0.6666700000000000  0.5473900000000000
  0.3333300000000000  0.6666700000000000  0.7859400000000000
  0.0000000000000000  0.0000000000000000  0.5000000000000000
  0.6666700000000000  0.3333300000000000  0.8333300000000000
  0.3333300000000000  0.6666700000000000  0.1666700000000000
  0.0000000000000000  0.0000000000000000  0.7200900000000000
  0.0000000000000000  0.0000000000000000  0.2799100000000000
  0.6666700000000000  0.3333300000000000  0.0534200000000000
  0.6666700000000000  0.3333300000000000  0.6132400000000000
  0.3333300000000000  0.6666700000000000  0.3867600000000000
  0.3333300000000000  0.6666700000000000  0.9465800000000001
