Sc Hg Te  C 
 1.0000000000000000
     3.3121000000000000    0.0000000000000000    0.0000000000000000
    -1.6560499999999991    2.8683627398744393    0.0000000000000000
     0.0000000000000000    0.0000000000000000    9.0113000000000003
 Sc  Hg  Te  C  
   2   2   2   1
Direct
  0.6665900000000000  0.3333000000000000  0.5648900000000000
  0.3334100000000000  0.6667000000000000  0.4351100000000000
  0.6666600000000003  0.3333300000000000  0.8962799999999999
  0.3333400000000000  0.6666700000000000  0.1037200000000000
  0.6667100000000000  0.3333600000000000  0.2799200000000000
  0.3332900000000001  0.6666400000000000  0.7200800000000001
  0.0000000000000000  0.0000000000000000  0.0000000000000000
