Cr Hg  C  S
 1.0000000000000000
     3.3029999999999999    0.0000000000000000    0.0000000000000000
    -1.6514999999999991    2.8604819087000011    0.0000000000000000
     0.0000000000000000    0.0000000000000000   25.8299999999999983
 Cr  Hg  C   S
   3   6   3   6
Direct
  0.0000000000000000  0.0000000000000000  0.0000000000000000
  0.6666700000000000  0.3333300000000000  0.3333300000000001
  0.3333300000000000  0.6666700000000000  0.6666700000000001
  0.0000000000000000  0.0000000000000000  0.8822200000000000
  0.0000000000000000  0.0000000000000000  0.1177800000000000
  0.6666700000000000  0.3333300000000000  0.2155500000000000
  0.6666700000000000  0.3333300000000000  0.4511200000000000
  0.3333300000000000  0.6666700000000000  0.5488800000000000
  0.3333300000000000  0.6666700000000000  0.7844500000000000
  0.0000000000000000  0.0000000000000000  0.5000000000000000
  0.6666700000000000  0.3333300000000000  0.8333300000000000
  0.3333300000000000  0.6666700000000000  0.1666700000000000
  0.0000000000000000  0.0000000000000000  0.7136400000000002
  0.0000000000000000  0.0000000000000000  0.2863600000000000
  0.6666700000000000  0.3333300000000000  0.0469800000000000
  0.6666600000000000  0.3333400000000000  0.6196900000000000
  0.3333400000000000  0.6666600000000000  0.3803100000000000
  0.3333300000000000  0.6666700000000000  0.9530200000000000
