Pt Se  N 
 1.0000000000000000
     3.2709999999999999    0.0000000000000000    0.0000000000000000
    -1.6354999999999991    2.8327690957788989    0.0000000000000000
     0.0000000000000000    0.0000000000000000   25.4780000000000015
 Pt  Se  N  
   6   6   3
Direct
  0.9999999999999997  0.9999999999999998  0.6145900000000000
  0.0000000000000000  0.0000000000000000  0.3854100000000000
  0.6666600000000000  0.3333400000000000  0.9479300000000001
  0.6666700000000000  0.3333300000000000  0.7187400000000000
  0.3333300000000000  0.6666700000000000  0.2812600000000000
  0.3333400000000000  0.6666600000000000  0.0520700000000000
  0.9999999999999997  0.9999999999999998  0.7788200000000000
  0.0000000000000000  0.0000000000000000  0.2211799999999999
  0.6666700000000000  0.3333300000000000  0.1121500000000000
  0.6666700000000000  0.3333300000000000  0.5545099999999999
  0.3333300000000000  0.6666700000000000  0.4454900000000000
  0.3333300000000000  0.6666700000000000  0.8878500000000000
  0.0000000000000000  0.0000000000000000  0.0000000000000000
  0.6666700000000000  0.3333300000000000  0.3333400000000000
  0.3333300000000000  0.6666700000000000  0.6666599999999999
