 W Te Ga 
 1.0000000000000000
     3.2709999999999999    0.0000000000000000    0.0000000000000000
    -1.6354999999999993    2.8327690957788989    0.0000000000000000
     0.0000000000000000    0.0000000000000000   25.4780000000000015
 W   Te  Ga 
   6   6   3
Direct
  0.9998700000000000  0.0001300000000000  0.6093100000000000
  0.0001300000000000  0.9998700000000000  0.3906900000000000
  0.6670000000000000  0.3330000000000000  0.9426400000000000
  0.6667900000000000  0.3332100000000000  0.7240300000000000
  0.3332099999999999  0.6667899999999999  0.2759700000000000
  0.3330000000000000  0.6670000000000000  0.0573600000000000
  0.0000199999999999  0.9999799999999998  0.7748900000000000
  0.9999800000000000  0.0000200000000000  0.2251100000000000
  0.6666200000000000  0.3333800000000000  0.1082200000000000
  0.6666500000000000  0.3333500000000000  0.5584400000000000
  0.3333499999999999  0.6666499999999999  0.4415599999999999
  0.3333799999999999  0.6666199999999999  0.8917799999999999
  0.0000000000000000  0.0000000000000000  0.0000000000000000
  0.6666700000000000  0.3333300000000000  0.3333300000000000
  0.3333300000000000  0.6666700000000000  0.6666699999999999
