Ti Te Ga 
 1.0000000000000000
     3.2709999999999999    0.0000000000000000    0.0000000000000000
    -1.6354999999999993    2.8327690957788989    0.0000000000000000
     0.0000000000000000    0.0000000000000000   25.4780000000000015
 Ti  Te  Ga 
   6   6   3
Direct
  0.9999999999999997  0.9999999999999998  0.6102900000000000
  0.0000000000000000  0.0000000000000000  0.3897100000000000
  0.6666700000000000  0.3333300000000000  0.9436200000000000
  0.6666700000000000  0.3333300000000000  0.7230399999999999
  0.3333300000000000  0.6666700000000000  0.2769600000000000
  0.3333300000000000  0.6666700000000000  0.0563800000000000
  0.9999999999999997  0.9999999999999998  0.7723799999999997
  0.0000000000000000  0.0000000000000000  0.2276200000000000
  0.6666700000000000  0.3333300000000000  0.1057100000000000
  0.6666700000000000  0.3333300000000000  0.5609499999999999
  0.3333300000000000  0.6666700000000000  0.4390500000000000
  0.3333300000000000  0.6666700000000000  0.8942900000000000
  0.0000000000000000  0.0000000000000000  0.0000000000000000
  0.6666700000000000  0.3333300000000000  0.3333300000000000
  0.3333300000000000  0.6666700000000000  0.6666699999999999
