Pd  S In 
 1.0000000000000000
     3.2690000000000001    0.0000000000000000    0.0000000000000000
    -1.6344999999999994    2.8310370449713305    0.0000000000000000
     0.0000000000000000    0.0000000000000000    8.5470000000000006
 Pd  S   In 
   2   2   1
Direct
  0.6667399999999998  0.3333700000000000  0.7251100000000000
  0.3332600000000000  0.6666300000000001  0.2748900000000000
  0.6666699999999999  0.3333300000000000  0.4516200000000000
  0.3333299999999999  0.6666700000000000  0.5483800000000000
  0.0000000000000000  0.0000000000000000  0.0000000000000000
