Sc Se Pb 
 1.0000000000000000
     3.2709999999999999    0.0000000000000000    0.0000000000000000
    -1.6354999999999993    2.8327690957788989    0.0000000000000000
     0.0000000000000000    0.0000000000000000   25.4780000000000015
 Sc  Se  Pb 
   6   6   3
Direct
  0.9999999999999997  0.9999999999999998  0.5753200000000001
  0.0000000000000000  0.0000000000000000  0.4246800000000000
  0.6666900000000000  0.3333099999999999  0.9086600000000000
  0.6666800000000001  0.3333199999999999  0.7580099999999999
  0.3333199999999999  0.6666800000000001  0.2419900000000000
  0.3333100000000000  0.6666900000000000  0.0913400000000000
  0.0000199999999999  0.9999799999999998  0.7838700000000000
  0.9999800000000000  0.0000200000000000  0.2161300000000000
  0.6666500000000000  0.3333500000000000  0.1171900000000000
  0.6666700000000000  0.3333300000000000  0.5494700000000000
  0.3333300000000000  0.6666700000000000  0.4505300000000000
  0.3333499999999999  0.6666499999999999  0.8828099999999999
  0.0000000000000000  0.0000000000000000  0.0000000000000000
  0.6667100000000000  0.3332900000000000  0.3333300000000000
  0.3332900000000000  0.6667100000000000  0.6666699999999999
