 Y Se As 
 1.0000000000000000
     3.2690000000000001    0.0000000000000000    0.0000000000000000
    -1.6344999999999994    2.8310370449713305    0.0000000000000000
     0.0000000000000000    0.0000000000000000    8.5470000000000006
 Y   Se  As 
   2   2   1
Direct
  0.6659499999999998  0.3329800000000000  0.7547100000000000
  0.3340500000000000  0.6670200000000001  0.2452900000000000
  0.6671799999999999  0.3335900000000000  0.3470900000000000
  0.3328199999999999  0.6664100000000001  0.6529100000000000
  0.0000000000000000  0.0000000000000000  0.0000000000000000
