Ta  S Ge 
 1.0000000000000000
     3.2690000000000001    0.0000000000000000    0.0000000000000000
    -1.6344999999999994    2.8310370449713305    0.0000000000000000
     0.0000000000000000    0.0000000000000000    8.5470000000000006
 Ta  S   Ge 
   2   2   1
Direct
  0.9998300000000000  0.9999100000000001  0.7276800000000000
  0.0001700000000000  0.0000900000000000  0.2723200000000000
  0.3336000000000000  0.6668000000000001  0.3543000000000000
  0.6663999999999999  0.3332000000000000  0.6457000000000001
  0.0000000000000000  0.0000000000000000  0.0000000000000000
