Ag Te Bi 
 1.0000000000000000
     3.2709999999999999    0.0000000000000000    0.0000000000000000
    -1.6354999999999993    2.8327690957788989    0.0000000000000000
     0.0000000000000000    0.0000000000000000   25.4780000000000015
 Ag  Te  Bi 
   6   6   3
Direct
  0.9999999999999997  0.9999999999999998  0.5976399999999999
  0.0000000000000000  0.0000000000000000  0.4023600000000000
  0.6666700000000000  0.3333300000000000  0.9309699999999997
  0.6666700000000000  0.3333300000000000  0.7356899999999997
  0.3333300000000000  0.6666700000000000  0.2643100000000000
  0.3333300000000000  0.6666700000000000  0.0690300000000000
  0.0000100000000000  0.9999899999999999  0.8006099999999999
  0.9999900000000000  0.0000100000000000  0.1993900000000000
  0.6666700000000000  0.3333300000000000  0.1339400000000000
  0.6666800000000001  0.3333199999999999  0.5327300000000000
  0.3333199999999999  0.6666800000000001  0.4672700000000000
  0.3333300000000000  0.6666700000000000  0.8660600000000001
  0.0000000000000000  0.0000000000000000  0.0000000000000000
  0.6666700000000000  0.3333300000000000  0.3333300000000000
  0.3333300000000000  0.6666700000000000  0.6666699999999999
