 W  S Sn 
 1.0000000000000000
     3.2709999999999999    0.0000000000000000    0.0000000000000000
    -1.6354999999999993    2.8327690957788989    0.0000000000000000
     0.0000000000000000    0.0000000000000000   25.4780000000000015
 W   S   Sn 
   6   6   3
Direct
  0.9999900000000000  0.0000100000000000  0.5787800000000000
  0.0000100000000000  0.9999899999999999  0.4212200000000000
  0.6667000000000000  0.3333000000000000  0.9121200000000000
  0.6666800000000001  0.3333199999999999  0.7545500000000001
  0.3333199999999999  0.6666800000000001  0.2454500000000000
  0.3332999999999999  0.6667000000000000  0.0878800000000000
  0.0000100000000000  0.9999899999999999  0.7827799999999999
  0.9999900000000000  0.0000100000000000  0.2172200000000000
  0.6666399999999999  0.3333600000000000  0.1161100000000000
  0.6666600000000000  0.3333400000000000  0.5505600000000000
  0.3333400000000000  0.6666600000000000  0.4494400000000000
  0.3333600000000000  0.6666399999999999  0.8838900000000000
  0.0000000000000000  0.0000000000000000  0.0000000000000000
  0.6666700000000000  0.3333300000000000  0.3333300000000000
  0.3333300000000000  0.6666700000000000  0.6666699999999999
