Cd Se As 
 1.0000000000000000
     3.2709999999999999    0.0000000000000000    0.0000000000000000
    -1.6354999999999993    2.8327690957788989    0.0000000000000000
     0.0000000000000000    0.0000000000000000   25.4780000000000015
 Cd  Se  As 
   6   6   3
Direct
  0.0003000000000000  0.9997000000000000  0.5890300000000001
  0.9997000000000000  0.0003000000000000  0.4109699999999999
  0.6714199999999999  0.3285799999999999  0.9318800000000000
  0.6885500000000000  0.3114500000000000  0.7579799999999999
  0.3114499999999999  0.6885499999999999  0.2420200000000000
  0.3285800000000000  0.6714200000000000  0.0681200000000000
  0.0282399999999999  0.9717599999999998  0.8317400000000000
  0.9717600000000000  0.0282400000000000  0.1682600000000000
  0.6732800000000000  0.3267200000000000  0.1343500000000000
  0.6486699999999999  0.3513299999999999  0.5174400000000000
  0.3513300000000000  0.6486700000000000  0.4825600000000000
  0.3267200000000000  0.6732800000000000  0.8656500000000000
  0.0000000000000000  0.0000000000000000  0.0000000000000000
  0.6281799999999998  0.3718199999999999  0.3282599999999999
  0.3718199999999999  0.6281800000000000  0.6717399999999999
