 V Hf  N Se 
 1.0000000000000000
     3.3029999999999999    0.0000000000000000    0.0000000000000000
    -1.6514999999999993    2.8604819087000011    0.0000000000000000
     0.0000000000000000    0.0000000000000000   25.8299999999999983
 V   Hf  N   Se 
   3   6   3   6
Direct
  0.0000000000000000  0.0000000000000000  0.0000000000000000
  0.3905899999999999  0.6094100000000000  0.3214300000000000
  0.6094100000000000  0.3905900000000000  0.6785700000000000
  0.9872900000000000  0.0127100000000000  0.9036200000000001
  0.0127100000000000  0.9872900000000001  0.0963800000000000
  0.6642399999999998  0.3357600000000000  0.1614100000000000
  0.6664899999999999  0.3335100000000000  0.4709600000000000
  0.3335100000000000  0.6664900000000000  0.5290400000000000
  0.3357599999999999  0.6642400000000001  0.8385899999999999
  0.0000000000000000  0.0000000000000000  0.5000000000000000
  0.6715100000000001  0.3284900000000000  0.8527700000000000
  0.3284900000000000  0.6715100000000001  0.1472300000000000
  0.1076200000000000  0.8923800000000000  0.7430300000000000
  0.8923799999999997  0.1076200000000000  0.2569700000000000
  0.6679400000000000  0.3320600000000000  0.0522500000000000
  0.9276000000000000  0.0724000000000000  0.6487500000000002
  0.0724000000000000  0.9276000000000000  0.3512500000000001
  0.3320600000000000  0.6679400000000000  0.9477500000000000
