 Y Te Sb 
 1.0000000000000000
     3.2709999999999999    0.0000000000000000    0.0000000000000000
    -1.6354999999999993    2.8327690957788989    0.0000000000000000
     0.0000000000000000    0.0000000000000000   25.4780000000000015
 Y   Te  Sb 
   6   6   3
Direct
  0.0069700000000000  0.9930300000000000  0.6078200000000000
  0.9930300000000000  0.0069700000000000  0.3921800000000000
  0.6512000000000000  0.3488000000000000  0.9409699999999998
  0.6647700000000000  0.3352300000000000  0.7284600000000000
  0.3352300000000000  0.6647700000000000  0.2715400000000000
  0.3488000000000000  0.6512000000000000  0.0590300000000000
  0.9557099999999997  0.0442900000000000  0.7995100000000001
  0.0442899999999999  0.9557099999999997  0.2004900000000000
  0.6626100000000000  0.3373900000000000  0.1254500000000000
  0.6702300000000000  0.3297700000000000  0.5514000000000000
  0.3297700000000000  0.6702300000000000  0.4486000000000000
  0.3373900000000000  0.6626100000000000  0.8745499999999998
  0.0000000000000000  0.0000000000000000  0.0000000000000000
  0.6754599999999999  0.3245399999999999  0.3198000000000000
  0.3245399999999999  0.6754599999999998  0.6802000000000000
