Ca Zr  S  N 
 1.0000000000000000
     3.3121000000000000    0.0000000000000000    0.0000000000000000
    -1.6560499999999994    2.8683627398744393    0.0000000000000000
     0.0000000000000000    0.0000000000000000    9.0113000000000003
 Ca  Zr  S   N  
   2   2   2   1
Direct
  0.6666700000000001  0.3333300000000000  0.5697000000000000
  0.3333300000000001  0.6666700000000000  0.4303000000000001
  0.6666700000000001  0.3333300000000000  0.8903400000000001
  0.3333300000000001  0.6666700000000000  0.1096600000000000
  0.6666700000000001  0.3333300000000000  0.2711600000000000
  0.3333300000000001  0.6666700000000000  0.7288400000000000
  0.0000000000000000  0.0000000000000000  0.0000000000000000
