Co  N  S 
 1.0000000000000000
     3.3435999999999999    0.0000000000000000    0.0000000000000000
    -1.6717999999999991    2.8956425400936490    0.0000000000000000
     0.0000000000000000    0.0000000000000000   11.5808999999999997
 Co  N   S  
   4   2   2
Direct
  0.3333400000000000  0.6666599999999999  0.4279800000000000
  0.6666600000000000  0.3333400000000000  0.5720200000000000
  0.6666600000000000  0.3333400000000000  0.9279800000000000
  0.3333400000000000  0.6666599999999999  0.0720200000000000
  0.0000000000000000  0.0000000000000000  0.0000000000000000
  0.0000000000000000  0.0000000000000000  0.5000000000000000
  0.3333600000000000  0.6666400000000000  0.7499900000000002
  0.6666400000000000  0.3333599999999999  0.2500100000000000
