Cd  S  N 
 1.0000000000000000
     3.2709999999999999    0.0000000000000000    0.0000000000000000
    -1.6354999999999991    2.8327690957788989    0.0000000000000000
     0.0000000000000000    0.0000000000000000   25.4780000000000015
 Cd  S   N  
   6   6   3
Direct
  0.0000000000000000  0.0000000000000000  0.6131100000000000
  0.9999999999999997  0.9999999999999998  0.3868900000000000
  0.6666600000000000  0.3333400000000000  0.9464399999999999
  0.6666700000000000  0.3333300000000000  0.7202200000000000
  0.3333300000000000  0.6666700000000000  0.2797800000000000
  0.3333400000000000  0.6666600000000000  0.0535600000000000
  0.9999999999999997  0.9999999999999998  0.8002300000000000
  0.0000000000000000  0.0000000000000000  0.1997700000000000
  0.6666700000000000  0.3333300000000000  0.1335700000000000
  0.6666700000000000  0.3333300000000000  0.5331000000000000
  0.3333300000000000  0.6666700000000000  0.4669000000000000
  0.3333300000000000  0.6666700000000000  0.8664299999999999
  0.0000000000000000  0.0000000000000000  0.0000000000000000
  0.6666700000000000  0.3333300000000000  0.3333300000000000
  0.3333300000000000  0.6666700000000000  0.6666699999999999
