Cu Zr  C Te
 1.0000000000000000
     3.3029999999999999    0.0000000000000000    0.0000000000000000
    -1.6514999999999993    2.8604819087000011    0.0000000000000000
     0.0000000000000000    0.0000000000000000   25.8299999999999983
 Cu  Zr  C   Te
   3   6   3   6
Direct
  0.0000000000000000  0.0000000000000000  0.0000000000000000
  0.6619300000000000  0.3380700000000000  0.3326600000000000
  0.3380700000000000  0.6619300000000000  0.6673400000000000
  0.9991599999999999  0.0008400000000000  0.8571700000000000
  0.0008400000000000  0.9991600000000000  0.1428300000000000
  0.6689900000000000  0.3310100000000000  0.1964600000000000
  0.6668799999999999  0.3331200000000000  0.4729500000000000
  0.3331200000000000  0.6668800000000000  0.5270500000000000
  0.3310100000000000  0.6689900000000000  0.8035400000000000
  0.0000000000000000  0.0000000000000000  0.5000000000000000
  0.6675000000000000  0.3325000000000000  0.8548600000000000
  0.3325000000000000  0.6675000000000000  0.1451400000000000
  0.0072800000000000  0.9927200000000002  0.7416800000000000
  0.9927200000000000  0.0072800000000000  0.2583200000000000
  0.5095000000000000  0.4905000000000000  0.0748600000000000
  0.6656000000000000  0.3344000000000000  0.5960100000000000
  0.3343999999999999  0.6656000000000000  0.4039900000000001
  0.4905000000000000  0.5095000000000000  0.9251400000000001
