 V Mn  C Se
 1.0000000000000000
     3.3029999999999999    0.0000000000000000    0.0000000000000000
    -1.6514999999999991    2.8604819087000011    0.0000000000000000
     0.0000000000000000    0.0000000000000000   25.8299999999999983
 V   Mn  C   Se
   3   6   3   6
Direct
  0.0000000000000000  0.0000000000000000  0.0000000000000000
  0.6666700000000000  0.3333300000000000  0.3333300000000001
  0.3333300000000000  0.6666700000000000  0.6666700000000001
  0.0000000000000000  0.0000000000000000  0.8663600000000000
  0.0000000000000000  0.0000000000000000  0.1336400000000000
  0.6666700000000000  0.3333300000000000  0.1996900000000000
  0.6666600000000000  0.3333400000000000  0.4669700000000001
  0.3333400000000000  0.6666600000000000  0.5330300000000000
  0.3333300000000000  0.6666700000000000  0.8003100000000000
  0.0000000000000000  0.0000000000000000  0.5000000000000000
  0.6666700000000000  0.3333300000000000  0.8333300000000000
  0.3333300000000000  0.6666700000000000  0.1666700000000000
  0.0000000000000000  0.0000000000000000  0.7288300000000001
  0.0000000000000000  0.0000000000000000  0.2711700000000000
  0.6666700000000000  0.3333300000000000  0.0621600000000000
  0.6666600000000000  0.3333400000000000  0.6045000000000000
  0.3333400000000000  0.6666600000000000  0.3955000000000000
  0.3333300000000000  0.6666700000000000  0.9378400000000000
