Ti Se Bi 
 1.0000000000000000
     3.2709999999999999    0.0000000000000000    0.0000000000000000
    -1.6354999999999993    2.8327690957788989    0.0000000000000000
     0.0000000000000000    0.0000000000000000   25.4780000000000015
 Ti  Se  Bi 
   6   6   3
Direct
  0.0084999999999999  0.9914999999999998  0.5801500000000001
  0.9915000000000000  0.0085000000000000  0.4198500000000000
  0.7752399999999999  0.2247600000000000  0.9138299999999999
  0.7401799999999999  0.2598199999999999  0.7509400000000001
  0.2598200000000000  0.7401799999999999  0.2490600000000000
  0.2247600000000000  0.7752400000000000  0.0861700000000000
  0.0738100000000000  0.9261900000000000  0.7781499999999999
  0.9261900000000000  0.0738100000000000  0.2218500000000000
  0.5654699999999998  0.4345300000000000  0.1140400000000000
  0.6716900000000000  0.3283099999999999  0.5528400000000000
  0.3283099999999999  0.6716899999999999  0.4471600000000000
  0.4345300000000000  0.5654699999999999  0.8859600000000000
  0.0000000000000000  0.0000000000000000  0.0000000000000000
  0.7546600000000000  0.2453399999999999  0.3306200000000000
  0.2453400000000001  0.7546600000000000  0.6693800000000000
