Mn Mo  C Se
 1.0000000000000000
     3.3029999999999999    0.0000000000000000    0.0000000000000000
    -1.6514999999999993    2.8604819087000011    0.0000000000000000
     0.0000000000000000    0.0000000000000000   25.8299999999999983
 Mn  Mo  C   Se
   3   6   3   6
Direct
  0.0000000000000000  0.0000000000000000  0.0000000000000000
  0.5673699999999999  0.4326300000000000  0.3250200000000001
  0.4326300000000000  0.5673700000000000  0.6749800000000000
  0.0006400000000000  0.9993600000000000  0.9128200000000000
  0.9993600000000000  0.0006400000000000  0.0871800000000000
  0.6875199999999998  0.3124800000000000  0.1647400000000000
  0.6554099999999998  0.3445900000000000  0.4736500000000000
  0.3445899999999999  0.6554100000000000  0.5263500000000000
  0.3124799999999999  0.6875200000000000  0.8352600000000000
  0.0000000000000000  0.0000000000000000  0.5000000000000000
  0.6444000000000000  0.3556000000000001  0.8469600000000002
  0.3556000000000000  0.6444000000000000  0.1530400000000000
  0.2885200000000000  0.7114800000000000  0.7532700000000000
  0.7114800000000000  0.2885200000000000  0.2467300000000000
  0.6662000000000000  0.3338000000000000  0.0496100000000000
  0.7700600000000000  0.2299400000000000  0.6448100000000000
  0.2299400000000000  0.7700600000000000  0.3551900000000000
  0.3338000000000000  0.6662000000000000  0.9503900000000001
