Hf Se Si 
 1.0000000000000000
     3.2709999999999999    0.0000000000000000    0.0000000000000000
    -1.6354999999999993    2.8327690957788989    0.0000000000000000
     0.0000000000000000    0.0000000000000000   25.4780000000000015
 Hf  Se  Si 
   6   6   3
Direct
  0.0201199999999999  0.9798799999999998  0.5832000000000001
  0.9798800000000000  0.0201200000000000  0.4168000000000000
  0.7632599999999999  0.2367400000000000  0.9172200000000000
  0.7270300000000000  0.2729699999999999  0.7476899999999999
  0.2729699999999999  0.7270299999999998  0.2523100000000000
  0.2367399999999999  0.7632599999999999  0.0827800000000000
  0.0601800000000000  0.9398200000000000  0.7828400000000000
  0.9398200000000000  0.0601800000000000  0.2171599999999999
  0.5760099999999999  0.4239899999999999  0.1173800000000000
  0.6849100000000000  0.3150900000000000  0.5498499999999999
  0.3150900000000000  0.6849100000000000  0.4501500000000000
  0.4239900000000000  0.5760100000000000  0.8826200000000000
 -0.0000000000000001  0.9999999999999998  0.0000000000000000
  0.9451200000000000  0.0548800000000000  0.3203400000000000
  0.0548800000000000  0.9451199999999998  0.6796600000000000
