Fe Hg  C Te
 1.0000000000000000
     3.3029999999999999    0.0000000000000000    0.0000000000000000
    -1.6514999999999993    2.8604819087000011    0.0000000000000000
     0.0000000000000000    0.0000000000000000   25.8299999999999983
 Fe  Hg  C   Te
   3   6   3   6
Direct
  0.0000000000000000  0.0000000000000000  0.0000000000000000
  0.6666700000000000  0.3333300000000000  0.3333300000000001
  0.3333300000000000  0.6666700000000000  0.6666700000000001
  0.0000000000000000  0.0000000000000000  0.8793299999999999
  0.0000000000000000  0.0000000000000000  0.1206700000000000
  0.6666700000000000  0.3333300000000000  0.2126700000000000
  0.6666700000000000  0.3333300000000000  0.4540000000000000
  0.3333300000000000  0.6666700000000000  0.5460000000000000
  0.3333300000000000  0.6666700000000000  0.7873300000000000
  0.0000000000000000  0.0000000000000000  0.5000000000000000
  0.6666700000000000  0.3333300000000000  0.8333300000000000
  0.3333300000000000  0.6666700000000000  0.1666700000000000
  0.0000000000000000  0.0000000000000000  0.7171999999999999
  0.0000000000000000  0.0000000000000000  0.2828000000000000
  0.6666700000000000  0.3333300000000000  0.0505300000000000
  0.6666600000000000  0.3333400000000000  0.6161400000000000
  0.3333400000000000  0.6666600000000000  0.3838600000000000
  0.3333300000000000  0.6666700000000000  0.9494700000000000
