Cu Se Bi 
 1.0000000000000000
     3.2690000000000001    0.0000000000000000    0.0000000000000000
    -1.6344999999999994    2.8310370449713305    0.0000000000000000
     0.0000000000000000    0.0000000000000000    8.5470000000000006
 Cu  Se  Bi 
   2   2   1
Direct
  0.7272299999999998  0.3636100000000000  0.7527000000000000
  0.2727700000000001  0.6363900000000001  0.2473000000000000
  0.6204899999999998  0.3102500000000001  0.4477100000000000
  0.3795100000000000  0.6897500000000001  0.5522899999999999
  0.0000000000000000  0.0000000000000000  0.0000000000000000
