Ni Pt  C Te
 1.0000000000000000
     3.3029999999999999    0.0000000000000000    0.0000000000000000
    -1.6514999999999993    2.8604819087000011    0.0000000000000000
     0.0000000000000000    0.0000000000000000   25.8299999999999983
 Ni  Pt  C   Te
   3   6   3   6
Direct
  0.0000000000000000  0.0000000000000000  0.0000000000000000
  0.6666700000000000  0.3333300000000000  0.3333300000000001
  0.3333300000000000  0.6666700000000000  0.6666700000000001
  0.0000000000000000  0.0000000000000000  0.8762300000000002
  0.0000000000000000  0.0000000000000000  0.1237700000000000
  0.6666700000000000  0.3333300000000000  0.2095700000000000
  0.6666700000000000  0.3333300000000000  0.4571000000000000
  0.3333300000000000  0.6666700000000000  0.5429000000000000
  0.3333300000000000  0.6666700000000000  0.7904300000000000
  0.0000000000000000  0.0000000000000000  0.5000000000000000
  0.6666700000000000  0.3333300000000000  0.8333300000000000
  0.3333300000000000  0.6666700000000000  0.1666700000000000
  0.0000000000000000  0.0000000000000000  0.7294500000000000
  0.0000000000000000  0.0000000000000000  0.2705500000000000
  0.6666700000000000  0.3333300000000000  0.0627900000000000
  0.6666700000000000  0.3333300000000000  0.6038800000000000
  0.3333300000000000  0.6666700000000000  0.3961200000000000
  0.3333300000000000  0.6666700000000000  0.9372100000000000
