Cr  W  C Te
 1.0000000000000000
     3.3029999999999999    0.0000000000000000    0.0000000000000000
    -1.6514999999999993    2.8604819087000011    0.0000000000000000
     0.0000000000000000    0.0000000000000000   25.8299999999999983
 Cr  W   C   Te
   3   6   3   6
Direct
  0.0000000000000000  0.0000000000000000  0.0000000000000000
  0.9038000000000000  0.0962000000000000  0.3305500000000000
  0.0961999999999999  0.9038000000000000  0.6694500000000000
  0.0012400000000001  0.9987600000000001  0.8828200000000000
  0.9987600000000000  0.0012400000000000  0.1171800000000000
  0.6658699999999999  0.3341300000000000  0.1767200000000000
  0.6687800000000000  0.3312200000000000  0.4712900000000000
  0.3312200000000000  0.6687800000000000  0.5287100000000000
  0.3341300000000000  0.6658700000000000  0.8232800000000000
  0.0000000000000000  0.0000000000000000  0.5000000000000000
  0.6672300000000000  0.3327700000000000  0.8343800000000000
  0.3327700000000000  0.6672300000000000  0.1656200000000000
  0.7749000000000000  0.2251000000000000  0.7104000000000000
  0.2251000000000000  0.7749000000000000  0.2896000000000000
  0.6662200000000000  0.3337800000000000  0.0551100000000000
  0.6368400000000000  0.3631600000000000  0.6000700000000000
  0.3631600000000000  0.6368400000000000  0.3999300000000000
  0.3337800000000000  0.6662200000000000  0.9448900000000001
