Os Te Si 
 1.0000000000000000
     3.2709999999999999    0.0000000000000000    0.0000000000000000
    -1.6354999999999993    2.8327690957788989    0.0000000000000000
     0.0000000000000000    0.0000000000000000   25.4780000000000015
 Os  Te  Si 
   6   6   3
Direct
  0.9999700000000000  0.0000300000000000  0.6221400000000000
  0.0000300000000000  0.9999700000000000  0.3778600000000000
  0.6667200000000000  0.3332800000000000  0.9554800000000000
  0.6667000000000000  0.3333000000000000  0.7111899999999998
  0.3332999999999999  0.6667000000000000  0.2888100000000000
  0.3332800000000000  0.6667200000000000  0.0445200000000000
  0.9999900000000000  0.0000100000000000  0.7737100000000000
  0.0000100000000000  0.9999899999999999  0.2262899999999999
  0.6666900000000000  0.3333099999999999  0.1070400000000000
  0.6666900000000000  0.3333099999999999  0.5596200000000000
  0.3333100000000000  0.6666900000000000  0.4403800000000000
  0.3333100000000000  0.6666900000000000  0.8929599999999999
  0.0000000000000000  0.0000000000000000  0.0000000000000000
  0.6666700000000000  0.3333300000000000  0.3333300000000000
  0.3333300000000000  0.6666700000000000  0.6666699999999999
