Li Ru  C Se
 1.0000000000000000
     3.3029999999999999    0.0000000000000000    0.0000000000000000
    -1.6514999999999993    2.8604819087000011    0.0000000000000000
     0.0000000000000000    0.0000000000000000   25.8299999999999983
 Li  Ru  C   Se
   3   6   3   6
Direct
  0.0000000000000000  0.0000000000000000  0.0000000000000000
  0.5926399999999999  0.4073600000000000  0.3378800000000000
  0.4073600000000000  0.5926399999999999  0.6621200000000000
  0.9550200000000000  0.0449800000000000  0.8808600000000002
  0.0449800000000000  0.9550200000000000  0.1191400000000000
  0.7186199999999998  0.2813800000000000  0.2031300000000000
  0.7314800000000000  0.2685200000000000  0.4616100000000000
  0.2685199999999999  0.7314800000000000  0.5383900000000000
  0.2813800000000001  0.7186200000000001  0.7968700000000001
  0.0000000000000000  0.0000000000000000  0.5000000000000000
  0.6172100000000000  0.3827900000000000  0.8115300000000000
  0.3827900000000000  0.6172100000000000  0.1884700000000000
  0.1025300000000000  0.8974700000000000  0.7222300000000000
  0.8974700000000000  0.1025300000000000  0.2777700000000000
  0.7119399999999998  0.2880600000000000  0.0785000000000000
  0.6939500000000000  0.3060500000000000  0.5916900000000000
  0.3060500000000000  0.6939500000000000  0.4083100000000001
  0.2880600000000000  0.7119400000000000  0.9215000000000002
