Ti Ni  C  S
 1.0000000000000000
     3.3029999999999999    0.0000000000000000    0.0000000000000000
    -1.6514999999999991    2.8604819087000011    0.0000000000000000
     0.0000000000000000    0.0000000000000000   25.8299999999999983
 Ti  Ni  C   S
   3   6   3   6
Direct
  0.0000000000000000  0.0000000000000000  0.0000000000000000
  0.6666700000000000  0.3333300000000000  0.3333300000000001
  0.3333300000000000  0.6666700000000000  0.6666700000000001
  0.0000000000000000  0.0000000000000000  0.8623600000000000
  0.0000000000000000  0.0000000000000000  0.1376400000000000
  0.6666700000000000  0.3333300000000000  0.1957000000000000
  0.6666700000000000  0.3333300000000000  0.4709700000000001
  0.3333300000000000  0.6666700000000000  0.5290300000000000
  0.3333300000000000  0.6666700000000000  0.8043000000000000
  0.0000000000000000  0.0000000000000000  0.5000000000000000
  0.6666700000000000  0.3333300000000000  0.8333300000000000
  0.3333300000000000  0.6666700000000000  0.1666700000000000
  0.0000000000000000  0.0000000000000000  0.7246300000000000
  0.0000000000000000  0.0000000000000000  0.2753700000000000
  0.6666700000000000  0.3333300000000000  0.0579600000000000
  0.6666600000000000  0.3333400000000000  0.6087000000000000
  0.3333400000000000  0.6666600000000000  0.3913000000000000
  0.3333300000000000  0.6666700000000000  0.9420400000000000
