Sc Ti  C  S
 1.0000000000000000
     3.3029999999999999    0.0000000000000000    0.0000000000000000
    -1.6514999999999991    2.8604819087000011    0.0000000000000000
     0.0000000000000000    0.0000000000000000   25.8299999999999983
 Sc  Ti  C   S
   3   6   3   6
Direct
  0.0000000000000000  0.0000000000000000  0.0000000000000000
  0.6666700000000000  0.3333300000000000  0.3333300000000001
  0.3333300000000000  0.6666700000000000  0.6666700000000001
  0.0000000000000000  0.0000000000000000  0.8740200000000000
  0.0000000000000000  0.0000000000000000  0.1259800000000000
  0.6666700000000000  0.3333300000000000  0.2073500000000000
  0.6666700000000000  0.3333300000000000  0.4593200000000000
  0.3333300000000000  0.6666700000000000  0.5406800000000000
  0.3333300000000000  0.6666700000000000  0.7926500000000001
  0.0000000000000000  0.0000000000000000  0.5000000000000000
  0.6666700000000000  0.3333300000000000  0.8333300000000000
  0.3333300000000000  0.6666700000000000  0.1666700000000000
  0.0000000000000000  0.0000000000000000  0.7297000000000000
  0.0000000000000000  0.0000000000000000  0.2703000000000000
  0.6666700000000000  0.3333300000000000  0.0630400000000000
  0.6666700000000000  0.3333300000000000  0.6036300000000000
  0.3333300000000000  0.6666700000000000  0.3963700000000000
  0.3333300000000000  0.6666700000000000  0.9369600000000000
