Co Te Ge 
 1.0000000000000000
     3.2690000000000001    0.0000000000000000    0.0000000000000000
    -1.6344999999999994    2.8310370449713305    0.0000000000000000
     0.0000000000000000    0.0000000000000000    8.5470000000000006
 Co  Te  Ge 
   2   2   1
Direct
  0.6666099999999999  0.3333100000000000  0.8744399999999999
  0.3333900000000001  0.6666900000000001  0.1255600000000000
  0.6665900000000000  0.3332900000000000  0.3274900000000000
  0.3334100000000000  0.6667100000000000  0.6725099999999999
  0.0000000000000000  0.0000000000000000  0.0000000000000000
