Rh Al  S 
 1.0000000000000000
     3.3435999999999999    0.0000000000000000    0.0000000000000000
    -1.6717999999999993    2.8956425400936490    0.0000000000000000
     0.0000000000000000    0.0000000000000000   11.5808999999999997
 Rh  Al  S  
   4   2   2
Direct
  0.3333000000000000  0.6667000000000000  0.3849500000000000
  0.6667000000000000  0.3333000000000000  0.6150500000000000
  0.6667000000000000  0.3333000000000000  0.8849500000000000
  0.3333000000000000  0.6667000000000000  0.1150500000000000
  0.0000000000000000  0.0000000000000000  0.0000000000000000
  0.0000000000000000  0.0000000000000000  0.5000000000000000
  0.3332899999999999  0.6667099999999999  0.7500000000000000
  0.6667100000000000  0.3332900000000000  0.2500000000000000
