Ir Te Al 
 1.0000000000000000
     3.2690000000000001    0.0000000000000000    0.0000000000000000
    -1.6344999999999994    2.8310370449713305    0.0000000000000000
     0.0000000000000000    0.0000000000000000    8.5470000000000006
 Ir  Te  Al 
   2   2   1
Direct
  0.6508999999999998  0.3254500000000000  0.8628200000000000
  0.3491000000000001  0.6745500000000001  0.1371800000000000
  0.3087600000000000  0.1543800000000000  0.3353400000000000
  0.6912399999999999  0.8456200000000003  0.6646600000000000
  0.0000000000000000  0.0000000000000000  0.0000000000000000
