Ag Mo  N  S 
 1.0000000000000000
     3.3029999999999999    0.0000000000000000    0.0000000000000000
    -1.6514999999999991    2.8604819087000011    0.0000000000000000
     0.0000000000000000    0.0000000000000000   25.8299999999999983
 Ag  Mo  N   S  
   3   6   3   6
Direct
  0.0000000000000000  0.0000000000000000  0.0000000000000000
  0.6666499999999999  0.3333500000000000  0.3353100000000000
  0.3333499999999999  0.6666500000000000  0.6646900000000000
  0.0000000000000000  0.0000000000000000  0.8640900000000000
  0.0000000000000000  0.0000000000000000  0.1359100000000000
  0.6666800000000001  0.3333200000000000  0.1948100000000000
  0.6666400000000000  0.3333600000000000  0.4712500000000000
  0.3333600000000000  0.6666400000000000  0.5287500000000001
  0.3333200000000000  0.6666800000000001  0.8051900000000000
  0.0000000000000000  0.0000000000000000  0.5000000000000000
  0.6666600000000000  0.3333400000000000  0.8433400000000000
  0.3333400000000000  0.6666600000000000  0.1566600000000000
  0.9999899999999998  0.0000100000000000  0.7577300000000000
  0.0000100000000001  0.9999900000000002  0.2422700000000001
  0.6666700000000000  0.3333300000000000  0.0822100000000000
  0.6666999999999998  0.3333000000000000  0.5783700000000001
  0.3332999999999999  0.6667000000000000  0.4216300000000000
  0.3333300000000000  0.6666700000000000  0.9177900000000000
