Nb  S Si 
 1.0000000000000000
     3.2709999999999999    0.0000000000000000    0.0000000000000000
    -1.6354999999999993    2.8327690957788989    0.0000000000000000
     0.0000000000000000    0.0000000000000000   25.4780000000000015
 Nb  S   Si 
   6   6   3
Direct
  0.0090900000000000  0.9909100000000000  0.5844000000000000
  0.9909100000000000  0.0090900000000000  0.4155999999999999
  0.3340700000000000  0.6659300000000000  0.9174900000000000
  0.3360400000000000  0.6639600000000000  0.7541500000000000
  0.6639600000000000  0.3360399999999999  0.2458500000000000
  0.6659300000000000  0.3340699999999999  0.0825100000000000
  0.6693400000000000  0.3306600000000000  0.7827499999999999
  0.3306600000000000  0.6693399999999999  0.2172500000000000
  0.9992200000000000  0.0007800000000000  0.1110700000000000
  0.6759300000000000  0.3240700000000000  0.5550200000000000
  0.3240699999999999  0.6759299999999999  0.4449800000000000
  0.0007799999999999  0.9992199999999998  0.8889299999999998
  0.0000000000000000  0.0000000000000000  0.0000000000000000
  0.3232500000000000  0.6767500000000000  0.3477800000000000
  0.6767500000000000  0.3232500000000000  0.6522200000000000
