Sc  S  B 
 1.0000000000000000
     3.2690000000000001    0.0000000000000000    0.0000000000000000
    -1.6344999999999994    2.8310370449713305    0.0000000000000000
     0.0000000000000000    0.0000000000000000    8.5470000000000006
 Sc  S   B  
   2   2   1
Direct
  0.6665200000000000  0.3332600000000000  0.7392500000000000
  0.3334799999999999  0.6667400000000000  0.2607500000000000
  0.6667600000000000  0.3333800000000000  0.3352000000000000
  0.3332399999999999  0.6666200000000000  0.6647999999999999
  0.0000000000000000  0.0000000000000000  0.0000000000000000
