Sc  S Pb 
 1.0000000000000000
     3.2690000000000001    0.0000000000000000    0.0000000000000000
    -1.6344999999999994    2.8310370449713305    0.0000000000000000
     0.0000000000000000    0.0000000000000000    8.5470000000000006
 Sc  S   Pb 
   2   2   1
Direct
  0.6662700000000000  0.3331400000000000  0.7153700000000000
  0.3337299999999999  0.6668600000000001  0.2846300000000000
  0.6668799999999999  0.3334400000000000  0.3521700000000000
  0.3331200000000001  0.6665600000000002  0.6478300000000000
  0.0000000000000000  0.0000000000000000  0.0000000000000000
