Ca Ru  N Se 
 1.0000000000000000
     3.3029999999999999    0.0000000000000000    0.0000000000000000
    -1.6514999999999993    2.8604819087000011    0.0000000000000000
     0.0000000000000000    0.0000000000000000   25.8299999999999983
 Ca  Ru  N   Se 
   3   6   3   6
Direct
  0.0000000000000000  0.0000000000000000  0.0000000000000000
  0.6666700000000000  0.3333300000000000  0.3333200000000000
  0.3333300000000000  0.6666700000000000  0.6666800000000002
  0.0000000000000000  0.0000000000000000  0.8747900000000001
  0.0000000000000000  0.0000000000000000  0.1252100000000000
  0.6666800000000001  0.3333200000000000  0.2081500000000000
  0.6666600000000000  0.3333400000000000  0.4585400000000001
  0.3333400000000000  0.6666600000000000  0.5414600000000001
  0.3333200000000000  0.6666800000000001  0.7918500000000001
  0.0000000000000000  0.0000000000000000  0.5000000000000000
  0.6666700000000000  0.3333300000000000  0.8335300000000000
  0.3333300000000000  0.6666700000000000  0.1664700000000000
  0.9999899999999998  0.0000100000000000  0.7513000000000000
  0.0000100000000001  0.9999900000000002  0.2487000000000000
  0.6666600000000000  0.3333400000000000  0.0846100000000000
  0.6666700000000000  0.3333300000000000  0.5820400000000000
  0.3333300000000000  0.6666700000000000  0.4179600000000000
  0.3333400000000000  0.6666600000000000  0.9153900000000001
