Fe Os  C Te
 1.0000000000000000
     3.3029999999999999    0.0000000000000000    0.0000000000000000
    -1.6514999999999993    2.8604819087000011    0.0000000000000000
     0.0000000000000000    0.0000000000000000   25.8299999999999983
 Fe  Os  C   Te
   3   6   3   6
Direct
  0.0000000000000000  0.0000000000000000  0.0000000000000000
  0.6546700000000000  0.3453300000000000  0.3481600000000000
  0.3453300000000000  0.6546700000000000  0.6518400000000000
  0.8106299999999996  0.1893700000000000  0.8691200000000000
  0.1893700000000000  0.8106300000000000  0.1308800000000000
  0.9857900000000001  0.0142100000000000  0.2160000000000000
  0.7482399999999999  0.2517600000000000  0.4599100000000001
  0.2517600000000000  0.7482400000000000  0.5400900000000000
  0.0142100000000000  0.9857900000000001  0.7840000000000001
  0.0000000000000000  0.0000000000000000  0.5000000000000000
  0.5046500000000000  0.4953500000000000  0.8469900000000000
  0.4953499999999999  0.5046500000000000  0.1530100000000000
  0.6880599999999999  0.3119400000000000  0.7294600000000001
  0.3119400000000000  0.6880600000000000  0.2705400000000000
  0.6812600000000000  0.3187400000000000  0.0572700000000000
  0.6708499999999997  0.3291500000000000  0.6038000000000000
  0.3291500000000000  0.6708499999999999  0.3962000000000001
  0.3187400000000000  0.6812600000000000  0.9427300000000000
