Zr Te  B 
 1.0000000000000000
     3.2709999999999999    0.0000000000000000    0.0000000000000000
    -1.6354999999999993    2.8327690957788989    0.0000000000000000
     0.0000000000000000    0.0000000000000000   25.4780000000000015
 Zr  Te  B  
   6   6   3
Direct
  0.1019300000000000  0.8980700000000000  0.6395200000000000
  0.8980700000000000  0.1019300000000000  0.3604800000000000
  0.6665700000000000  0.3334300000000000  0.9722799999999998
  0.7655000000000000  0.2344999999999999  0.6946199999999999
  0.2344999999999999  0.7654999999999998  0.3053800000000000
  0.3334300000000000  0.6665700000000000  0.0277200000000000
  0.0123000000000000  0.9877000000000000  0.7769100000000000
  0.9876999999999999  0.0123000000000000  0.2230900000000000
  0.6593300000000000  0.3406700000000000  0.1006000000000000
  0.6401199999999999  0.3598800000000000  0.5602400000000000
  0.3598799999999999  0.6401199999999999  0.4397600000000000
  0.3406699999999999  0.6593299999999999  0.8994000000000000
  0.0000000000000000  0.0000000000000000  0.0000000000000000
  0.5746700000000000  0.4253299999999999  0.3339300000000000
  0.4253299999999999  0.5746700000000000  0.6660699999999999
