Mg Pt  C Se
 1.0000000000000000
     3.3029999999999999    0.0000000000000000    0.0000000000000000
    -1.6514999999999993    2.8604819087000011    0.0000000000000000
     0.0000000000000000    0.0000000000000000   25.8299999999999983
 Mg  Pt  C   Se
   3   6   3   6
Direct
  0.0000000000000000  0.0000000000000000  0.0000000000000000
  0.6666700000000000  0.3333300000000000  0.3333300000000001
  0.3333300000000000  0.6666700000000000  0.6666700000000001
  0.9999899999999998  0.0000100000000000  0.8764300000000002
  0.0000100000000001  0.9999900000000002  0.1235700000000000
  0.6666800000000001  0.3333200000000000  0.2097600000000000
  0.6666700000000000  0.3333300000000000  0.4569100000000000
  0.3333300000000000  0.6666700000000000  0.5430900000000000
  0.3333200000000000  0.6666800000000001  0.7902400000000001
  0.0000000000000000  0.0000000000000000  0.5000000000000000
  0.6666800000000001  0.3333200000000000  0.8333300000000000
  0.3333200000000000  0.6666800000000001  0.1666700000000000
  0.0000000000000000  0.0000000000000000  0.7341100000000000
  0.0000000000000000  0.0000000000000000  0.2658900000000000
  0.6666600000000000  0.3333400000000000  0.0674400000000000
  0.6666700000000000  0.3333300000000000  0.5992200000000000
  0.3333300000000000  0.6666700000000000  0.4007800000000000
  0.3333400000000000  0.6666600000000000  0.9325599999999999
