Sc  V  C Te
 1.0000000000000000
     3.3029999999999999    0.0000000000000000    0.0000000000000000
    -1.6514999999999993    2.8604819087000011    0.0000000000000000
     0.0000000000000000    0.0000000000000000   25.8299999999999983
 Sc  V   C   Te
   3   6   3   6
Direct
  0.0000000000000000  0.0000000000000000  0.0000000000000000
  0.6667100000000000  0.3332900000000000  0.3333200000000000
  0.3332900000000000  0.6667100000000000  0.6666800000000002
  0.0000000000000000  0.0000000000000000  0.8570600000000002
  0.0000000000000000  0.0000000000000000  0.1429400000000000
  0.6666600000000000  0.3333400000000000  0.1903700000000000
  0.6666700000000000  0.3333300000000000  0.4762800000000000
  0.3333300000000000  0.6666700000000000  0.5237200000000000
  0.3333400000000000  0.6666600000000000  0.8096300000000000
  0.0000000000000000  0.0000000000000000  0.5000000000000000
  0.6666600000000000  0.3333400000000000  0.8333300000000000
  0.3333400000000000  0.6666600000000000  0.1666700000000000
  0.0000200000000001  0.9999800000000001  0.7356200000000001
  0.9999800000000000  0.0000200000000000  0.2643800000000000
  0.6666600000000000  0.3333400000000000  0.0689700000000000
  0.6666900000000000  0.3333100000000000  0.5976900000000001
  0.3333099999999999  0.6666900000000000  0.4023100000000001
  0.3333400000000000  0.6666600000000000  0.9310300000000000
