Mg Mo  S  N 
 1.0000000000000000
     3.3121000000000000    0.0000000000000000    0.0000000000000000
    -1.6560499999999994    2.8683627398744393    0.0000000000000000
     0.0000000000000000    0.0000000000000000    9.0113000000000003
 Mg  Mo  S   N  
   2   2   2   1
Direct
  0.6666700000000001  0.3333300000000000  0.5927900000000000
  0.3333300000000001  0.6666700000000000  0.4072100000000000
  0.6666700000000001  0.3333300000000000  0.9040900000000001
  0.3333300000000001  0.6666700000000000  0.0959100000000000
  0.6666700000000001  0.3333300000000000  0.2626900000000000
  0.3333300000000001  0.6666700000000000  0.7373100000000000
  0.0000000000000000  0.0000000000000000  0.0000000000000000
