Ta Se  N 
 1.0000000000000000
     3.2690000000000001    0.0000000000000000    0.0000000000000000
    -1.6344999999999994    2.8310370449713305    0.0000000000000000
     0.0000000000000000    0.0000000000000000    8.5470000000000006
 Ta  Se  N  
   2   2   1
Direct
  0.6666699999999999  0.3333300000000000  0.9066300000000000
  0.3333299999999999  0.6666700000000000  0.0933700000000000
  0.6667800000000000  0.3333900000000001  0.2833000000000000
  0.3332200000000001  0.6666100000000001  0.7167000000000000
  0.0000000000000000  0.0000000000000000  0.0000000000000000
