Sc Co  C Se
 1.0000000000000000
     3.3029999999999999    0.0000000000000000    0.0000000000000000
    -1.6514999999999993    2.8604819087000011    0.0000000000000000
     0.0000000000000000    0.0000000000000000   25.8299999999999983
 Sc  Co  C   Se
   3   6   3   6
Direct
  0.0000000000000000  0.0000000000000000  0.0000000000000000
  0.6666700000000000  0.3333300000000000  0.3333500000000000
  0.3333300000000000  0.6666700000000000  0.6666500000000000
  0.0000000000000000  0.0000000000000000  0.8644600000000001
  0.0000000000000000  0.0000000000000000  0.1355400000000000
  0.6666700000000000  0.3333300000000000  0.1978100000000000
  0.6666700000000000  0.3333300000000000  0.4688500000000000
  0.3333300000000000  0.6666700000000000  0.5311500000000000
  0.3333300000000000  0.6666700000000000  0.8021900000000000
  0.0000000000000000  0.0000000000000000  0.5000000000000000
  0.6666700000000000  0.3333300000000000  0.8333400000000000
  0.3333300000000000  0.6666700000000000  0.1666600000000000
  0.0000000000000000  0.0000000000000000  0.7361700000000001
  0.0000000000000000  0.0000000000000000  0.2638300000000000
  0.6666700000000000  0.3333300000000000  0.0695100000000000
  0.6666600000000000  0.3333400000000000  0.5971500000000000
  0.3333400000000000  0.6666600000000000  0.4028500000000000
  0.3333300000000000  0.6666700000000000  0.9304900000000000
