Cr  S  C 
 1.0000000000000000
     3.2709999999999999    0.0000000000000000    0.0000000000000000
    -1.6354999999999993    2.8327690957788989    0.0000000000000000
     0.0000000000000000    0.0000000000000000   25.4780000000000015
 Cr  S   C  
   6   6   3
Direct
  0.9999800000000000  0.0000200000000000  0.6264700000000000
  0.0000199999999999  0.9999799999999998  0.3735300000000000
  0.6666500000000000  0.3333500000000000  0.9597999999999999
  0.6666800000000001  0.3333199999999999  0.7068700000000000
  0.3333199999999999  0.6666800000000001  0.2931300000000000
  0.3333499999999999  0.6666499999999999  0.0402000000000000
  0.9999800000000000  0.0000200000000000  0.7628700000000000
  0.0000199999999999  0.9999799999999998  0.2371300000000000
  0.6666399999999999  0.3333600000000000  0.0962000000000000
  0.6666900000000000  0.3333099999999999  0.5704600000000000
  0.3333100000000000  0.6666900000000000  0.4295400000000000
  0.3333600000000000  0.6666399999999999  0.9037999999999999
  0.0000000000000000  0.0000000000000000  0.0000000000000000
  0.6666600000000000  0.3333400000000000  0.3333300000000000
  0.3333400000000000  0.6666600000000000  0.6666699999999999
