Cu Mo  C Te
 1.0000000000000000
     3.3029999999999999    0.0000000000000000    0.0000000000000000
    -1.6514999999999993    2.8604819087000011    0.0000000000000000
     0.0000000000000000    0.0000000000000000   25.8299999999999983
 Cu  Mo  C   Te
   3   6   3   6
Direct
  0.0000000000000000  0.0000000000000000  0.0000000000000000
  0.5349499999999999  0.4650500000000000  0.3368200000000001
  0.4650500000000000  0.5349500000000000  0.6631800000000000
  0.9264400000000000  0.0735600000000000  0.8681900000000000
  0.0735600000000000  0.9264400000000000  0.1318100000000000
  0.7497199999999998  0.2502800000000000  0.1947600000000000
  0.6505699999999998  0.3494300000000000  0.4715000000000001
  0.3494300000000000  0.6505700000000000  0.5285000000000000
  0.2502800000000000  0.7497200000000001  0.8052400000000000
  0.0000000000000000  0.0000000000000000  0.5000000000000000
  0.5836700000000000  0.4163300000000000  0.8160500000000001
  0.4163299999999999  0.5836700000000000  0.1839500000000000
  0.9827600000000000  0.0172400000000000  0.7325000000000000
  0.0172400000000001  0.9827600000000001  0.2675000000000000
  0.7408899999999998  0.2591100000000000  0.0770900000000000
  0.7753400000000000  0.2246600000000000  0.5930800000000001
  0.2246599999999999  0.7753400000000001  0.4069200000000000
  0.2591100000000000  0.7408900000000000  0.9229100000000000
