Fe Te Ge 
 1.0000000000000000
     3.2690000000000001    0.0000000000000000    0.0000000000000000
    -1.6344999999999994    2.8310370449713305    0.0000000000000000
     0.0000000000000000    0.0000000000000000    8.5470000000000006
 Fe  Te  Ge 
   2   2   1
Direct
  0.6666499999999999  0.3333200000000001  0.8677800000000000
  0.3333499999999999  0.6666800000000001  0.1322200000000000
  0.6666299999999999  0.3333100000000000  0.3097800000000000
  0.3333700000000001  0.6666900000000001  0.6902199999999999
  0.0000000000000000  0.0000000000000000  0.0000000000000000
