Ti  C  S
 1.0000000000000000
     3.3029999999999999    0.0000000000000000    0.0000000000000000
    -1.6514999999999991    2.8604819087000011    0.0000000000000000
     0.0000000000000000    0.0000000000000000   25.8299999999999983
 Ti  C   S
   9   3   6
Direct
  0.0000000000000000  0.0000000000000000  0.0000000000000000
  0.6666700000000000  0.3333300000000000  0.3333300000000001
  0.3333300000000000  0.6666700000000000  0.6666700000000001
  0.0000000000000000  0.0000000000000000  0.8750200000000000
  0.0000000000000000  0.0000000000000000  0.1249800000000000
  0.6666700000000000  0.3333300000000000  0.2083500000000000
  0.6666700000000000  0.3333300000000000  0.4583200000000000
  0.3333300000000000  0.6666700000000000  0.5416800000000001
  0.3333300000000000  0.6666700000000000  0.7916500000000000
  0.0000000000000000  0.0000000000000000  0.5000000000000000
  0.6666700000000000  0.3333300000000000  0.8333300000000000
  0.3333300000000000  0.6666700000000000  0.1666700000000000
  0.0000000000000000  0.0000000000000000  0.7265500000000000
  0.0000000000000000  0.0000000000000000  0.2734500000000000
  0.6666700000000000  0.3333300000000000  0.0598800000000000
  0.6666700000000000  0.3333300000000000  0.6067900000000001
  0.3333300000000000  0.6666700000000000  0.3932100000000000
  0.3333300000000000  0.6666700000000000  0.9401200000000000
