Ir Se Al 
 1.0000000000000000
     3.2709999999999999    0.0000000000000000    0.0000000000000000
    -1.6354999999999993    2.8327690957788989    0.0000000000000000
     0.0000000000000000    0.0000000000000000   25.4780000000000015
 Ir  Se  Al 
   6   6   3
Direct
  0.9999900000000000  0.0000100000000000  0.6170600000000001
  0.0000100000000000  0.9999899999999999  0.3829400000000000
  0.6666800000000001  0.3333199999999999  0.9503899999999997
  0.6666800000000001  0.3333199999999999  0.7162800000000000
  0.3333199999999999  0.6666800000000001  0.2837200000000000
  0.3333199999999999  0.6666800000000001  0.0496100000000000
  0.9999900000000000  0.0000100000000000  0.7779799999999999
  0.0000100000000000  0.9999899999999999  0.2220200000000000
  0.6666800000000001  0.3333199999999999  0.1113100000000000
  0.6666700000000000  0.3333300000000000  0.5553500000000000
  0.3333300000000000  0.6666700000000000  0.4446500000000000
  0.3333199999999999  0.6666800000000001  0.8886900000000000
  0.0000000000000000  0.0000000000000000  0.0000000000000000
  0.6666700000000000  0.3333300000000000  0.3333300000000000
  0.3333300000000000  0.6666700000000000  0.6666699999999999
