Sc Te Ge 
 1.0000000000000000
     3.2709999999999999    0.0000000000000000    0.0000000000000000
    -1.6354999999999993    2.8327690957788989    0.0000000000000000
     0.0000000000000000    0.0000000000000000   25.4780000000000015
 Sc  Te  Ge 
   6   6   3
Direct
  0.9775800000000000  0.0224200000000000  0.5936500000000000
  0.0224199999999999  0.9775799999999999  0.4063500000000000
  0.6671200000000000  0.3328800000000000  0.9668300000000000
  0.5904100000000000  0.4095900000000000  0.7036700000000000
  0.4095900000000000  0.5904100000000000  0.2963300000000000
  0.3328800000000000  0.6671199999999999  0.0331700000000000
  0.8864900000000000  0.1135100000000000  0.7755600000000000
  0.1135099999999999  0.8864899999999999  0.2244399999999999
  0.6664099999999999  0.3335899999999999  0.1034400000000000
  0.6444299999999999  0.3555699999999999  0.5557900000000000
  0.3555700000000000  0.6444299999999999  0.4442100000000000
  0.3335900000000000  0.6664099999999999  0.8965599999999999
  0.9999999999999997  0.9999999999999998  0.0000000000000000
  0.7464499999999998  0.2535500000000000  0.3279200000000000
  0.2535499999999998  0.7464499999999997  0.6720800000000000
