Ca Sc  N Se 
 1.0000000000000000
     3.3029999999999999    0.0000000000000000    0.0000000000000000
    -1.6514999999999991    2.8604819087000011    0.0000000000000000
     0.0000000000000000    0.0000000000000000   25.8299999999999983
 Ca  Sc  N   Se 
   3   6   3   6
Direct
  0.0000000000000000  0.0000000000000000  0.0000000000000000
  0.7410300000000000  0.2589700000000000  0.3097800000000000
  0.2589700000000000  0.7410300000000000  0.6902199999999999
  0.8681399999999998  0.1318600000000000  0.8649300000000000
  0.1318600000000001  0.8681400000000000  0.1350700000000000
  0.7911499999999999  0.2088500000000000  0.1872500000000000
  0.6780399999999999  0.3219600000000000  0.4732200000000000
  0.3219600000000000  0.6780400000000000  0.5267800000000000
  0.2088500000000000  0.7911500000000000  0.8127500000000000
  0.0000000000000000  0.0000000000000000  0.5000000000000000
  0.5458000000000001  0.4542000000000000  0.8378800000000000
  0.4541999999999999  0.5458000000000000  0.1621200000000000
  0.9260800000000000  0.0739200000000000  0.7211600000000000
  0.0739200000000000  0.9260800000000000  0.2788400000000000
  0.6659200000000000  0.3340800000000000  0.0590900000000000
  0.7828200000000000  0.2171800000000000  0.5945800000000000
  0.2171800000000000  0.7828200000000000  0.4054200000000000
  0.3340800000000000  0.6659200000000000  0.9409100000000001
