Sc Ru  C Te
 1.0000000000000000
     3.3029999999999999    0.0000000000000000    0.0000000000000000
    -1.6514999999999993    2.8604819087000011    0.0000000000000000
     0.0000000000000000    0.0000000000000000   25.8299999999999983
 Sc  Ru  C   Te
   3   6   3   6
Direct
  0.0000000000000000  0.0000000000000000  0.0000000000000000
  0.6666600000000000  0.3333400000000000  0.3333200000000000
  0.3333400000000000  0.6666600000000000  0.6666800000000002
  0.0000000000000000  0.0000000000000000  0.8735600000000000
  0.0000000000000000  0.0000000000000000  0.1264400000000000
  0.6666800000000001  0.3333200000000000  0.2068700000000000
  0.6666700000000000  0.3333300000000000  0.4597800000000000
  0.3333300000000000  0.6666700000000000  0.5402200000000000
  0.3333200000000000  0.6666800000000001  0.7931300000000000
  0.0000000000000000  0.0000000000000000  0.5000000000000000
  0.6666800000000001  0.3333200000000000  0.8333199999999999
  0.3333200000000000  0.6666800000000001  0.1666800000000000
  0.0000000000000000  0.0000000000000000  0.7340500000000000
  0.0000000000000000  0.0000000000000000  0.2659500000000000
  0.6666700000000000  0.3333300000000000  0.0673900000000000
  0.6666600000000000  0.3333400000000000  0.5992800000000000
  0.3333400000000000  0.6666600000000000  0.4007200000000001
  0.3333300000000000  0.6666700000000000  0.9326100000000001
