Rh Se  C 
 1.0000000000000000
     3.2709999999999999    0.0000000000000000    0.0000000000000000
    -1.6354999999999991    2.8327690957788989    0.0000000000000000
     0.0000000000000000    0.0000000000000000   25.4780000000000015
 Rh  Se  C  
   6   6   3
Direct
  0.0000000000000000  0.0000000000000000  0.6274400000000000
  0.9999999999999997  0.9999999999999998  0.3725600000000000
  0.6666700000000000  0.3333300000000000  0.9607800000000000
  0.6666700000000000  0.3333300000000000  0.7058900000000000
  0.3333300000000000  0.6666700000000000  0.2941100000000000
  0.3333300000000000  0.6666700000000000  0.0392200000000000
  0.0000000000000000  0.0000000000000000  0.7749100000000000
  0.9999999999999997  0.9999999999999998  0.2250900000000000
  0.6666700000000000  0.3333300000000000  0.1082500000000000
  0.6666700000000000  0.3333300000000000  0.5584200000000000
  0.3333300000000000  0.6666700000000000  0.4415800000000000
  0.3333300000000000  0.6666700000000000  0.8917500000000000
  0.0000000000000000  0.0000000000000000  0.0000000000000000
  0.6666700000000000  0.3333300000000000  0.3333300000000000
  0.3333300000000000  0.6666700000000000  0.6666699999999999
