Zn Au  C Te
 1.0000000000000000
     3.3029999999999999    0.0000000000000000    0.0000000000000000
    -1.6514999999999993    2.8604819087000011    0.0000000000000000
     0.0000000000000000    0.0000000000000000   25.8299999999999983
 Zn  Au  C   Te
   3   6   3   6
Direct
  0.0000000000000000  0.0000000000000000  0.0000000000000000
  0.6666700000000000  0.3333300000000000  0.3333300000000001
  0.3333300000000000  0.6666700000000000  0.6666700000000001
  0.0000000000000000  0.0000000000000000  0.8765100000000000
  0.0000000000000000  0.0000000000000000  0.1234900000000000
  0.6666700000000000  0.3333300000000000  0.2098400000000001
  0.6666700000000000  0.3333300000000000  0.4568300000000000
  0.3333300000000000  0.6666700000000000  0.5431700000000000
  0.3333300000000000  0.6666700000000000  0.7901600000000000
  0.0000000000000000  0.0000000000000000  0.5000000000000000
  0.6666700000000000  0.3333300000000000  0.8333300000000000
  0.3333300000000000  0.6666700000000000  0.1666700000000000
  0.0000000000000000  0.0000000000000000  0.7254400000000001
  0.0000000000000000  0.0000000000000000  0.2745600000000000
  0.6666700000000000  0.3333300000000000  0.0587700000000000
  0.6666700000000000  0.3333300000000000  0.6078900000000000
  0.3333300000000000  0.6666700000000000  0.3921100000000000
  0.3333300000000000  0.6666700000000000  0.9412300000000000
