Ca  V  C Te
 1.0000000000000000
     3.3029999999999999    0.0000000000000000    0.0000000000000000
    -1.6514999999999993    2.8604819087000011    0.0000000000000000
     0.0000000000000000    0.0000000000000000   25.8299999999999983
 Ca  V   C   Te
   3   6   3   6
Direct
  0.0000000000000000  0.0000000000000000  0.0000000000000000
  0.6666700000000000  0.3333300000000000  0.3333100000000000
  0.3333300000000000  0.6666700000000000  0.6666900000000001
  0.0000000000000000  0.0000000000000000  0.8574400000000000
  0.0000000000000000  0.0000000000000000  0.1425600000000000
  0.6666700000000000  0.3333300000000000  0.1907600000000000
  0.6666700000000000  0.3333300000000000  0.4759000000000000
  0.3333300000000000  0.6666700000000000  0.5241000000000000
  0.3333300000000000  0.6666700000000000  0.8092400000000000
  0.0000000000000000  0.0000000000000000  0.5000000000000000
  0.6666600000000000  0.3333400000000000  0.8333300000000000
  0.3333400000000000  0.6666600000000000  0.1666700000000000
  0.0000000000000000  0.0000000000000000  0.7394900000000000
  0.0000000000000000  0.0000000000000000  0.2605100000000000
  0.6666600000000000  0.3333400000000000  0.0728400000000000
  0.6666700000000000  0.3333300000000000  0.5938200000000000
  0.3333300000000000  0.6666700000000000  0.4061800000000000
  0.3333400000000000  0.6666600000000000  0.9271600000000000
