Pd Se  N 
 1.0000000000000000
     3.2709999999999999    0.0000000000000000    0.0000000000000000
    -1.6354999999999991    2.8327690957788989    0.0000000000000000
     0.0000000000000000    0.0000000000000000   25.4780000000000015
 Pd  Se  N  
   6   6   3
Direct
  0.9999999999999997  0.9999999999999998  0.6161500000000000
  0.0000000000000000  0.0000000000000000  0.3838500000000000
  0.6666600000000000  0.3333400000000000  0.9494800000000000
  0.6666700000000000  0.3333300000000000  0.7171800000000000
  0.3333300000000000  0.6666700000000000  0.2828200000000000
  0.3333400000000000  0.6666600000000000  0.0505200000000000
  0.9999999999999997  0.9999999999999998  0.7792300000000000
  0.0000000000000000  0.0000000000000000  0.2207700000000000
  0.6666700000000000  0.3333300000000000  0.1125700000000000
  0.6666700000000000  0.3333300000000000  0.5541000000000000
  0.3333300000000000  0.6666700000000000  0.4458999999999999
  0.3333300000000000  0.6666700000000000  0.8874299999999999
  0.0000000000000000  0.0000000000000000  0.0000000000000000
  0.6666700000000000  0.3333300000000000  0.3333400000000000
  0.3333300000000000  0.6666700000000000  0.6666599999999999
