Cr Hf  C Te
 1.0000000000000000
     3.3029999999999999    0.0000000000000000    0.0000000000000000
    -1.6514999999999993    2.8604819087000011    0.0000000000000000
     0.0000000000000000    0.0000000000000000   25.8299999999999983
 Cr  Hf  C   Te
   3   6   3   6
Direct
  0.0000000000000000  0.0000000000000000  0.0000000000000000
  0.7240700000000000  0.2759300000000000  0.3290200000000001
  0.2759300000000000  0.7240700000000000  0.6709800000000000
  0.8679299999999998  0.1320700000000000  0.8662500000000000
  0.1320700000000000  0.8679300000000000  0.1337500000000000
  0.7940300000000000  0.2059700000000000  0.1876800000000000
  0.6687300000000000  0.3312700000000000  0.4731800000000001
  0.3312700000000000  0.6687300000000000  0.5268200000000000
  0.2059700000000000  0.7940300000000000  0.8123200000000000
  0.0000000000000000  0.0000000000000000  0.5000000000000000
  0.5432399999999998  0.4567600000000000  0.8396500000000000
  0.4567600000000000  0.5432399999999999  0.1603500000000000
  0.9600000000000000  0.0400000000000000  0.7191600000000000
  0.0400000000000000  0.9600000000000000  0.2808400000000000
  0.6680500000000000  0.3319500000000000  0.0538900000000000
  0.7656600000000000  0.2343400000000000  0.6084500000000000
  0.2343399999999999  0.7656600000000000  0.3915500000000000
  0.3319500000000000  0.6680500000000000  0.9461100000000000
