Os Se  C 
 1.0000000000000000
     3.2709999999999999    0.0000000000000000    0.0000000000000000
    -1.6354999999999991    2.8327690957788989    0.0000000000000000
     0.0000000000000000    0.0000000000000000   25.4780000000000015
 Os  Se  C  
   6   6   3
Direct
  0.9999999999999997  0.9999999999999998  0.6299300000000000
  0.0000000000000000  0.0000000000000000  0.3700700000000000
  0.6666700000000000  0.3333300000000000  0.9632699999999998
  0.6666700000000000  0.3333300000000000  0.7033800000000000
  0.3333300000000000  0.6666700000000000  0.2966200000000000
  0.3333300000000000  0.6666700000000000  0.0367300000000000
  0.0000000000000000  0.0000000000000000  0.7722900000000000
  0.9999999999999997  0.9999999999999998  0.2277100000000000
  0.6666700000000000  0.3333300000000000  0.1056200000000000
  0.6666700000000000  0.3333300000000000  0.5610400000000000
  0.3333300000000000  0.6666700000000000  0.4389600000000000
  0.3333300000000000  0.6666700000000000  0.8943800000000000
  0.0000000000000000  0.0000000000000000  0.0000000000000000
  0.6666700000000000  0.3333300000000000  0.3333199999999999
  0.3333300000000000  0.6666700000000000  0.6666800000000001
