Sc Pd  N  S 
 1.0000000000000000
     3.3029999999999999    0.0000000000000000    0.0000000000000000
    -1.6514999999999991    2.8604819087000011    0.0000000000000000
     0.0000000000000000    0.0000000000000000   25.8299999999999983
 Sc  Pd  N   S  
   3   6   3   6
Direct
  0.0000000000000000  0.0000000000000000  0.0000000000000000
  0.6691700000000000  0.3308300000000000  0.2989000000000000
  0.3308300000000000  0.6691700000000000  0.7010999999999999
  0.0001600000000000  0.9998400000000000  0.8969500000000000
  0.9998399999999997  0.0001600000000000  0.1030500000000000
  0.6684099999999998  0.3315900000000000  0.2080500000000000
  0.6660799999999998  0.3339200000000000  0.4539200000000000
  0.3339199999999999  0.6660800000000000  0.5460800000000000
  0.3315899999999999  0.6684099999999999  0.7919500000000000
  0.0000000000000000  0.0000000000000000  0.5000000000000000
  0.6672500000000000  0.3327500000000000  0.8562500000000001
  0.3327500000000000  0.6672500000000000  0.1437500000000000
  0.9974900000000000  0.0025100000000000  0.7319700000000001
  0.0025100000000001  0.9974900000000001  0.2680300000000000
  0.6666700000000000  0.3333300000000000  0.0498800000000000
  0.6676799999999999  0.3323200000000000  0.5976800000000000
  0.3323200000000000  0.6676800000000001  0.4023200000000001
  0.3333300000000000  0.6666700000000000  0.9501200000000000
