 V Au  C  S
 1.0000000000000000
     3.3029999999999999    0.0000000000000000    0.0000000000000000
    -1.6514999999999991    2.8604819087000011    0.0000000000000000
     0.0000000000000000    0.0000000000000000   25.8299999999999983
 V   Au  C   S
   3   6   3   6
Direct
  0.0000000000000000  0.0000000000000000  0.0000000000000000
  0.6666700000000000  0.3333300000000000  0.3333300000000001
  0.3333300000000000  0.6666700000000000  0.6666700000000001
  0.0000000000000000  0.0000000000000000  0.8809200000000000
  0.0000000000000000  0.0000000000000000  0.1190800000000000
  0.6666700000000000  0.3333300000000000  0.2142600000000001
  0.6666700000000000  0.3333300000000000  0.4524100000000000
  0.3333300000000000  0.6666700000000000  0.5475900000000000
  0.3333300000000000  0.6666700000000000  0.7857400000000000
  0.0000000000000000  0.0000000000000000  0.5000000000000000
  0.6666700000000000  0.3333300000000000  0.8333300000000000
  0.3333300000000000  0.6666700000000000  0.1666700000000000
  0.0000000000000000  0.0000000000000000  0.7179200000000000
  0.0000000000000000  0.0000000000000000  0.2820800000000000
  0.6666700000000000  0.3333300000000000  0.0512500000000000
  0.6666700000000000  0.3333300000000000  0.6154200000000000
  0.3333300000000000  0.6666700000000000  0.3845800000000000
  0.3333300000000000  0.6666700000000000  0.9487500000000000
