Ag  S Ge 
 1.0000000000000000
     3.2690000000000001    0.0000000000000000    0.0000000000000000
    -1.6344999999999994    2.8310370449713305    0.0000000000000000
     0.0000000000000000    0.0000000000000000    8.5470000000000006
 Ag  S   Ge 
   2   2   1
Direct
  0.6026800000000000  0.3013400000000001  0.7835100000000000
  0.3973199999999999  0.6986599999999999  0.2164900000000000
  0.6260999999999998  0.3130500000000001  0.5090600000000000
  0.3739000000000000  0.6869500000000001  0.4909400000000000
  0.0000000000000000  0.0000000000000000  0.0000000000000000
