Hg Se Al 
 1.0000000000000000
     3.2690000000000001    0.0000000000000000    0.0000000000000000
    -1.6344999999999994    2.8310370449713305    0.0000000000000000
     0.0000000000000000    0.0000000000000000    8.5470000000000006
 Hg  Se  Al 
   2   2   1
Direct
  0.6996499999999998  0.3498300000000000  0.7638100000000000
  0.3003500000000000  0.6501700000000000  0.2361900000000000
  0.6224200000000000  0.3112100000000000  0.4497300000000000
  0.3775800000000000  0.6887900000000000  0.5502700000000000
  0.0000000000000000  0.0000000000000000  0.0000000000000000
