Os Te Ga 
 1.0000000000000000
     3.2709999999999999    0.0000000000000000    0.0000000000000000
    -1.6354999999999993    2.8327690957788989    0.0000000000000000
     0.0000000000000000    0.0000000000000000   25.4780000000000015
 Os  Te  Ga 
   6   6   3
Direct
  0.9999900000000000  0.0000100000000000  0.6159000000000000
  0.0000100000000000  0.9999899999999999  0.3841000000000000
  0.6666700000000000  0.3333300000000000  0.9492399999999998
  0.6666800000000001  0.3333199999999999  0.7174300000000000
  0.3333199999999999  0.6666800000000001  0.2825700000000000
  0.3333300000000000  0.6666700000000000  0.0507600000000000
  0.0000000000000000  0.0000000000000000  0.7749400000000000
  0.9999999999999997  0.9999999999999998  0.2250600000000000
  0.6666700000000000  0.3333300000000000  0.1082700000000000
  0.6666700000000000  0.3333300000000000  0.5583900000000001
  0.3333300000000000  0.6666700000000000  0.4416100000000000
  0.3333300000000000  0.6666700000000000  0.8917300000000000
  0.0000000000000000  0.0000000000000000  0.0000000000000000
  0.6666700000000000  0.3333300000000000  0.3333300000000000
  0.3333300000000000  0.6666700000000000  0.6666699999999999
