Os Te Al 
 1.0000000000000000
     3.2709999999999999    0.0000000000000000    0.0000000000000000
    -1.6354999999999993    2.8327690957788989    0.0000000000000000
     0.0000000000000000    0.0000000000000000   25.4780000000000015
 Os  Te  Al 
   6   6   3
Direct
  0.9999900000000000  0.0000100000000000  0.6191000000000000
  0.0000100000000000  0.9999899999999999  0.3809000000000000
  0.6666800000000001  0.3333199999999999  0.9524300000000000
  0.6666800000000001  0.3333199999999999  0.7142300000000000
  0.3333199999999999  0.6666800000000001  0.2857700000000000
  0.3333199999999999  0.6666800000000001  0.0475700000000000
  0.0000000000000000  0.0000000000000000  0.7731400000000000
  0.9999999999999997  0.9999999999999998  0.2268600000000000
  0.6666700000000000  0.3333300000000000  0.1064800000000000
  0.6666800000000001  0.3333199999999999  0.5601900000000000
  0.3333199999999999  0.6666800000000001  0.4398099999999999
  0.3333300000000000  0.6666700000000000  0.8935200000000000
  0.0000000000000000  0.0000000000000000  0.0000000000000000
  0.6666600000000000  0.3333400000000000  0.3333300000000000
  0.3333400000000000  0.6666600000000000  0.6666699999999999
