Fe Re  N  S 
 1.0000000000000000
     3.3029999999999999    0.0000000000000000    0.0000000000000000
    -1.6514999999999991    2.8604819087000011    0.0000000000000000
     0.0000000000000000    0.0000000000000000   25.8299999999999983
 Fe  Re  N   S  
   3   6   3   6
Direct
  0.0000000000000000  0.0000000000000000  0.0000000000000000
  0.7111200000000000  0.2888800000000000  0.2673000000000000
  0.2888800000000000  0.7111200000000000  0.7327000000000000
  0.0650499999999999  0.9349499999999999  0.9045400000000000
  0.9349499999999997  0.0650500000000000  0.0954600000000000
  0.6937400000000000  0.3062600000000000  0.1827300000000000
  0.7311700000000000  0.2688300000000000  0.4583400000000001
  0.2688300000000000  0.7311700000000000  0.5416600000000000
  0.3062600000000000  0.6937400000000000  0.8172700000000002
  0.0000000000000000  0.0000000000000000  0.5000000000000000
  0.5834500000000000  0.4165500000000000  0.8645300000000000
  0.4165499999999999  0.5834500000000000  0.1354700000000000
  0.9623399999999999  0.0376600000000000  0.7721600000000000
  0.0376600000000000  0.9623400000000000  0.2278400000000000
  0.6385999999999999  0.3614000000000000  0.0475300000000000
  0.6285100000000000  0.3714900000000000  0.5822400000000000
  0.3714900000000000  0.6285100000000000  0.4177600000000000
  0.3614000000000000  0.6385999999999999  0.9524700000000001
