Hg  S Sn 
 1.0000000000000000
     3.2709999999999999    0.0000000000000000    0.0000000000000000
    -1.6354999999999993    2.8327690957788989    0.0000000000000000
     0.0000000000000000    0.0000000000000000   25.4780000000000015
 Hg  S   Sn 
   6   6   3
Direct
  0.0001799999999999  0.9998199999999999  0.5721300000000000
  0.9998200000000000  0.0001800000000000  0.4278699999999999
  0.6637300000000000  0.3362700000000000  0.9067000000000000
  0.6691099999999999  0.3308900000000000  0.7579899999999998
  0.3308900000000000  0.6691100000000000  0.2420100000000000
  0.3362700000000000  0.6637300000000000  0.0933000000000000
  0.0140899999999999  0.9859099999999998  0.8283300000000000
  0.9859099999999998  0.0140900000000000  0.1716700000000000
  0.6800800000000000  0.3199199999999999  0.1631899999999999
  0.6770100000000000  0.3229899999999999  0.5011500000000000
  0.3229899999999999  0.6770099999999999  0.4988500000000000
  0.3199199999999999  0.6800799999999999  0.8368100000000001
  0.0000000000000000  0.0000000000000000  0.0000000000000000
  0.6752200000000000  0.3247800000000000  0.3351000000000000
  0.3247800000000000  0.6752200000000000  0.6648999999999999
