 V  S In 
 1.0000000000000000
     3.2709999999999999    0.0000000000000000    0.0000000000000000
    -1.6354999999999993    2.8327690957788989    0.0000000000000000
     0.0000000000000000    0.0000000000000000   25.4780000000000015
 V   S   In 
   6   6   3
Direct
  0.9999999999999997  0.9999999999999998  0.5708100000000000
  0.0000000000000000  0.0000000000000000  0.4291900000000000
  0.6666700000000000  0.3333300000000000  0.9041499999999998
  0.6666700000000000  0.3333300000000000  0.7625200000000000
  0.3333300000000000  0.6666700000000000  0.2374800000000000
  0.3333300000000000  0.6666700000000000  0.0958500000000000
  0.0000000000000000  0.0000000000000000  0.7857999999999999
  0.9999999999999997  0.9999999999999998  0.2142000000000000
  0.6666700000000000  0.3333300000000000  0.1191300000000000
  0.6666700000000000  0.3333300000000000  0.5475300000000000
  0.3333300000000000  0.6666700000000000  0.4524700000000000
  0.3333300000000000  0.6666700000000000  0.8808700000000000
  0.0000000000000000  0.0000000000000000  0.0000000000000000
  0.6666700000000000  0.3333300000000000  0.3333300000000000
  0.3333300000000000  0.6666700000000000  0.6666699999999999
