Ca Cd  C Se
 1.0000000000000000
     3.3029999999999999    0.0000000000000000    0.0000000000000000
    -1.6514999999999993    2.8604819087000011    0.0000000000000000
     0.0000000000000000    0.0000000000000000   25.8299999999999983
 Ca  Cd  C   Se
   3   6   3   6
Direct
  0.0000000000000000  0.0000000000000000  0.0000000000000000
  0.6666700000000000  0.3333300000000000  0.3333000000000000
  0.3333300000000000  0.6666700000000000  0.6667000000000001
  0.0000000000000000  0.0000000000000000  0.8835000000000000
  0.0000000000000000  0.0000000000000000  0.1165000000000000
  0.6666700000000000  0.3333300000000000  0.2168400000000000
  0.6666700000000000  0.3333300000000000  0.4498300000000000
  0.3333300000000000  0.6666700000000000  0.5501700000000000
  0.3333300000000000  0.6666700000000000  0.7831600000000001
  0.0000000000000000  0.0000000000000000  0.5000000000000000
  0.6666700000000000  0.3333300000000000  0.8333300000000000
  0.3333300000000000  0.6666700000000000  0.1666700000000000
  0.0000000000000000  0.0000000000000000  0.7135800000000000
  0.0000000000000000  0.0000000000000000  0.2864200000000000
  0.6666700000000000  0.3333300000000000  0.0469200000000000
  0.6666700000000000  0.3333300000000000  0.6197300000000001
  0.3333300000000000  0.6666700000000000  0.3802700000000000
  0.3333300000000000  0.6666700000000000  0.9530800000000003
