Cu  V  N Se 
 1.0000000000000000
     3.3029999999999999    0.0000000000000000    0.0000000000000000
    -1.6514999999999991    2.8604819087000011    0.0000000000000000
     0.0000000000000000    0.0000000000000000   25.8299999999999983
 Cu  V   N   Se 
   3   6   3   6
Direct
  0.0000000000000000  0.0000000000000000  0.0000000000000000
  0.6666700000000000  0.3333300000000000  0.3332300000000001
  0.3333300000000000  0.6666700000000000  0.6667700000000000
  0.9999800000000000  0.0000200000000000  0.8604600000000001
  0.0000200000000001  0.9999800000000001  0.1395400000000000
  0.6666600000000000  0.3333400000000000  0.1931900000000000
  0.6666700000000000  0.3333300000000000  0.4731700000000000
  0.3333300000000000  0.6666700000000000  0.5268300000000000
  0.3333400000000000  0.6666600000000000  0.8068100000000000
  0.0000000000000000  0.0000000000000000  0.5000000000000000
  0.6666499999999999  0.3333500000000000  0.8337000000000001
  0.3333499999999999  0.6666500000000000  0.1663000000000000
  0.0001200000000000  0.9998800000000001  0.7487400000000000
  0.9998800000000000  0.0001200000000000  0.2512600000000000
  0.6667600000000000  0.3332400000000000  0.0813900000000000
  0.6666100000000000  0.3333900000000000  0.5849299999999999
  0.3333899999999999  0.6666100000000000  0.4150700000000001
  0.3332400000000000  0.6667600000000000  0.9186100000000000
