Zn Ti  C  S
 1.0000000000000000
     3.3029999999999999    0.0000000000000000    0.0000000000000000
    -1.6514999999999991    2.8604819087000011    0.0000000000000000
     0.0000000000000000    0.0000000000000000   25.8299999999999983
 Zn  Ti  C   S
   3   6   3   6
Direct
  0.0000000000000000  0.0000000000000000  0.0000000000000000
  0.6666700000000000  0.3333300000000000  0.3333300000000001
  0.3333300000000000  0.6666700000000000  0.6666700000000001
  0.0000000000000000  0.0000000000000000  0.8749100000000000
  0.0000000000000000  0.0000000000000000  0.1250900000000000
  0.6666700000000000  0.3333300000000000  0.2082400000000000
  0.6666700000000000  0.3333300000000000  0.4584200000000000
  0.3333300000000000  0.6666700000000000  0.5415800000000000
  0.3333300000000000  0.6666700000000000  0.7917600000000001
  0.0000000000000000  0.0000000000000000  0.5000000000000000
  0.6666700000000000  0.3333300000000000  0.8333300000000000
  0.3333300000000000  0.6666700000000000  0.1666700000000000
  0.0000000000000000  0.0000000000000000  0.7268000000000000
  0.0000000000000000  0.0000000000000000  0.2732000000000000
  0.6666700000000000  0.3333300000000000  0.0601300000000000
  0.6666700000000000  0.3333300000000000  0.6065300000000000
  0.3333300000000000  0.6666700000000000  0.3934700000000000
  0.3333300000000000  0.6666700000000000  0.9398700000000001
