Au Se Si 
 1.0000000000000000
     3.2709999999999999    0.0000000000000000    0.0000000000000000
    -1.6354999999999993    2.8327690957788989    0.0000000000000000
     0.0000000000000000    0.0000000000000000   25.4780000000000015
 Au  Se  Si 
   6   6   3
Direct
  0.9779299999999999  0.0220700000000000  0.6064900000000000
  0.0220699999999999  0.9779299999999997  0.3935100000000000
  0.6566000000000000  0.3434000000000000  0.9365899999999999
  0.6391700000000000  0.3608299999999999  0.7349700000000000
  0.3608300000000000  0.6391700000000000  0.2650300000000000
  0.3433999999999999  0.6565999999999999  0.0634100000000000
  0.0112800000000000  0.9887200000000000  0.8120899999999998
  0.9887199999999999  0.0112800000000000  0.1879099999999999
  0.7042400000000000  0.2957600000000000  0.1416300000000000
  0.6930200000000000  0.3069800000000000  0.5244500000000000
  0.3069800000000000  0.6930200000000000  0.4755499999999999
  0.2957599999999999  0.7042399999999999  0.8583700000000000
  0.0000000000000000  0.0000000000000000  0.0000000000000000
  0.7266899999999999  0.2733100000000000  0.3289500000000000
  0.2733099999999999  0.7266899999999998  0.6710500000000000
