Au  S Al 
 1.0000000000000000
     3.2690000000000001    0.0000000000000000    0.0000000000000000
    -1.6344999999999994    2.8310370449713305    0.0000000000000000
     0.0000000000000000    0.0000000000000000    8.5470000000000006
 Au  S   Al 
   2   2   1
Direct
  0.6441000000000000  0.3220500000000000  0.7963600000000000
  0.3559000000000000  0.6779500000000001  0.2036400000000000
  0.6317900000000000  0.3158900000000000  0.4625200000000000
  0.3682099999999999  0.6841100000000000  0.5374800000000000
  0.0000000000000000  0.0000000000000000  0.0000000000000000
