Cu  S  C 
 1.0000000000000000
     3.2709999999999999    0.0000000000000000    0.0000000000000000
    -1.6354999999999991    2.8327690957788989    0.0000000000000000
     0.0000000000000000    0.0000000000000000   25.4780000000000015
 Cu  S   C  
   6   6   3
Direct
  0.9999999999999997  0.9999999999999998  0.6239700000000000
  0.0000000000000000  0.0000000000000000  0.3760299999999999
  0.6666700000000000  0.3333300000000000  0.9572999999999999
  0.6666700000000000  0.3333300000000000  0.7093600000000000
  0.3333300000000000  0.6666700000000000  0.2906400000000000
  0.3333300000000000  0.6666700000000000  0.0427000000000000
  0.9999999999999997  0.9999999999999998  0.7627599999999999
  0.0000000000000000  0.0000000000000000  0.2372400000000000
  0.6666700000000000  0.3333300000000000  0.0961000000000000
  0.6666700000000000  0.3333300000000000  0.5705700000000000
  0.3333300000000000  0.6666700000000000  0.4294300000000000
  0.3333300000000000  0.6666700000000000  0.9039000000000000
  0.0000000000000000  0.0000000000000000  0.0000000000000000
  0.6666700000000000  0.3333300000000000  0.3333300000000000
  0.3333300000000000  0.6666700000000000  0.6666699999999999
