Ni  V  N  S 
 1.0000000000000000
     3.3029999999999999    0.0000000000000000    0.0000000000000000
    -1.6514999999999991    2.8604819087000011    0.0000000000000000
     0.0000000000000000    0.0000000000000000   25.8299999999999983
 Ni  V   N   S  
   3   6   3   6
Direct
  0.0000000000000000  0.0000000000000000  0.0000000000000000
  0.5653700000000000  0.4346300000000000  0.3799200000000000
  0.4346300000000000  0.5653700000000000  0.6200800000000000
  0.9643099999999998  0.0356900000000000  0.8211300000000000
  0.0356900000000000  0.9643100000000000  0.1788700000000000
  0.7025100000000000  0.2974900000000000  0.2342400000000000
  0.6547899999999999  0.3452100000000000  0.4739100000000000
  0.3452099999999999  0.6547900000000000  0.5260899999999999
  0.2974900000000000  0.7025100000000001  0.7657600000000000
  0.0000000000000000  0.0000000000000000  0.5000000000000000
  0.6310199999999998  0.3689800000000000  0.8153400000000000
  0.3689800000000000  0.6310200000000000  0.1846600000000000
  0.9645500000000000  0.0354500000000000  0.7284900000000000
  0.0354500000000000  0.9645500000000000  0.2715100000000000
  0.6952599999999999  0.3047400000000000  0.0543700000000000
  0.7340100000000001  0.2659900000000000  0.5712400000000000
  0.2659900000000001  0.7340100000000002  0.4287600000000000
  0.3047400000000000  0.6952600000000000  0.9456300000000000
