Ni Os  N  S 
 1.0000000000000000
     3.3029999999999999    0.0000000000000000    0.0000000000000000
    -1.6514999999999991    2.8604819087000011    0.0000000000000000
     0.0000000000000000    0.0000000000000000   25.8299999999999983
 Ni  Os  N   S  
   3   6   3   6
Direct
  0.0000000000000000  0.0000000000000000  0.0000000000000000
  0.6666600000000000  0.3333400000000000  0.3333600000000000
  0.3333400000000000  0.6666600000000000  0.6666400000000000
  0.0000200000000001  0.9999800000000001  0.8772400000000000
  0.9999800000000000  0.0000200000000000  0.1227600000000000
  0.6666900000000000  0.3333100000000000  0.2105500000000000
  0.6666600000000000  0.3333400000000000  0.4561000000000000
  0.3333400000000000  0.6666600000000000  0.5439000000000001
  0.3333099999999999  0.6666900000000000  0.7894500000000002
  0.0000000000000000  0.0000000000000000  0.5000000000000000
  0.6666700000000000  0.3333300000000000  0.8336100000000000
  0.3333300000000000  0.6666700000000000  0.1663900000000000
  0.9999800000000000  0.0000200000000000  0.7520700000000000
  0.0000200000000001  0.9999800000000001  0.2479300000000000
  0.6666499999999999  0.3333500000000000  0.0853500000000000
  0.6666700000000000  0.3333300000000000  0.5812800000000000
  0.3333300000000000  0.6666700000000000  0.4187200000000000
  0.3333499999999999  0.6666500000000000  0.9146500000000000
