Mg Zn  C  S
 1.0000000000000000
     3.3029999999999999    0.0000000000000000    0.0000000000000000
    -1.6514999999999991    2.8604819087000011    0.0000000000000000
     0.0000000000000000    0.0000000000000000   25.8299999999999983
 Mg  Zn  C   S
   3   6   3   6
Direct
  0.0000000000000000  0.0000000000000000  0.0000000000000000
  0.6666700000000000  0.3333300000000000  0.3333300000000001
  0.3333300000000000  0.6666700000000000  0.6666700000000001
  0.0000000000000000  0.0000000000000000  0.8756300000000000
  0.0000000000000000  0.0000000000000000  0.1243700000000000
  0.6666700000000000  0.3333300000000000  0.2089700000000000
  0.6666700000000000  0.3333300000000000  0.4577000000000001
  0.3333300000000000  0.6666700000000000  0.5423000000000000
  0.3333300000000000  0.6666700000000000  0.7910300000000000
  0.0000000000000000  0.0000000000000000  0.5000000000000000
  0.6666700000000000  0.3333300000000000  0.8333300000000000
  0.3333300000000000  0.6666700000000000  0.1666700000000000
  0.0000000000000000  0.0000000000000000  0.7281600000000001
  0.0000000000000000  0.0000000000000000  0.2718400000000000
  0.6666700000000000  0.3333300000000000  0.0615000000000000
  0.6666700000000000  0.3333300000000000  0.6051700000000000
  0.3333300000000000  0.6666700000000000  0.3948300000000001
  0.3333300000000000  0.6666700000000000  0.9385000000000000
