Cu Hf  N  S 
 1.0000000000000000
     3.3029999999999999    0.0000000000000000    0.0000000000000000
    -1.6514999999999991    2.8604819087000011    0.0000000000000000
     0.0000000000000000    0.0000000000000000   25.8299999999999983
 Cu  Hf  N   S  
   3   6   3   6
Direct
  0.0000000000000000  0.0000000000000000  0.0000000000000000
  0.4850200000000000  0.5149800000000000  0.3441100000000000
  0.5149800000000000  0.4850200000000000  0.6558900000000000
  0.0264000000000000  0.9736000000000000  0.8663100000000002
  0.9735999999999999  0.0264000000000000  0.1336900000000000
  0.6743500000000000  0.3256500000000000  0.2460600000000000
  0.6684099999999998  0.3315900000000000  0.4688800000000000
  0.3315899999999999  0.6684099999999999  0.5311200000000000
  0.3256500000000000  0.6743500000000000  0.7539400000000001
  0.0000000000000000  0.0000000000000000  0.5000000000000000
  0.6952599999999999  0.3047400000000000  0.8827100000000000
  0.3047400000000000  0.6952600000000000  0.1172900000000000
  0.0026600000000001  0.9973400000000001  0.7239500000000002
  0.9973400000000000  0.0026600000000000  0.2760500000000000
  0.5189600000000000  0.4810400000000000  0.0771500000000000
  0.7063699999999998  0.2936300000000000  0.5825700000000000
  0.2936299999999999  0.7063700000000001  0.4174300000000000
  0.4810399999999999  0.5189600000000000  0.9228499999999999
