Rh  S Ga 
 1.0000000000000000
     3.2690000000000001    0.0000000000000000    0.0000000000000000
    -1.6344999999999994    2.8310370449713305    0.0000000000000000
     0.0000000000000000    0.0000000000000000    8.5470000000000006
 Rh  S   Ga 
   2   2   1
Direct
  0.3752900000000000  0.1876400000000000  0.7327899999999999
  0.6247100000000000  0.8123600000000000  0.2672100000000000
  0.9711199999999994  0.4855600000000000  0.3958300000000000
  0.0288800000000000  0.5144400000000001  0.6041700000000000
  0.0000000000000000  0.0000000000000000  0.0000000000000000
