Rh Se Bi 
 1.0000000000000000
     3.2709999999999999    0.0000000000000000    0.0000000000000000
    -1.6354999999999993    2.8327690957788989    0.0000000000000000
     0.0000000000000000    0.0000000000000000   25.4780000000000015
 Rh  Se  Bi 
   6   6   3
Direct
  0.9999999999999997  0.9999999999999998  0.5918000000000000
  0.0000000000000000  0.0000000000000000  0.4082000000000000
  0.6666700000000000  0.3333300000000000  0.9251299999999999
  0.6666700000000000  0.3333300000000000  0.7415300000000000
  0.3333300000000000  0.6666700000000000  0.2584700000000000
  0.3333300000000000  0.6666700000000000  0.0748700000000000
  0.0000000000000000  0.0000000000000000  0.8008200000000000
  0.9999999999999997  0.9999999999999998  0.1991799999999999
  0.6666700000000000  0.3333300000000000  0.1341600000000000
  0.6666700000000000  0.3333300000000000  0.5325100000000000
  0.3333300000000000  0.6666700000000000  0.4674900000000000
  0.3333300000000000  0.6666700000000000  0.8658399999999999
  0.0000000000000000  0.0000000000000000  0.0000000000000000
  0.6666700000000000  0.3333300000000000  0.3333300000000000
  0.3333300000000000  0.6666700000000000  0.6666699999999999
