Ag Ru  C  S
 1.0000000000000000
     3.3029999999999999    0.0000000000000000    0.0000000000000000
    -1.6514999999999991    2.8604819087000011    0.0000000000000000
     0.0000000000000000    0.0000000000000000   25.8299999999999983
 Ag  Ru  C   S
   3   6   3   6
Direct
  0.0000000000000000  0.0000000000000000  0.0000000000000000
  0.6666700000000000  0.3333300000000000  0.3333400000000001
  0.3333300000000000  0.6666700000000000  0.6666600000000001
  0.0000000000000000  0.0000000000000000  0.8687200000000000
  0.0000000000000000  0.0000000000000000  0.1312800000000000
  0.6666700000000000  0.3333300000000000  0.2020600000000000
  0.6666700000000000  0.3333300000000000  0.4646100000000000
  0.3333300000000000  0.6666700000000000  0.5353900000000000
  0.3333300000000000  0.6666700000000000  0.7979400000000000
  0.0000000000000000  0.0000000000000000  0.5000000000000000
  0.6666700000000000  0.3333300000000000  0.8333300000000000
  0.3333300000000000  0.6666700000000000  0.1666700000000000
  0.0000000000000000  0.0000000000000000  0.7386900000000000
  0.0000000000000000  0.0000000000000000  0.2613100000000000
  0.6666700000000000  0.3333300000000000  0.0720200000000000
  0.6666700000000000  0.3333300000000000  0.5946399999999999
  0.3333300000000000  0.6666700000000000  0.4053600000000001
  0.3333300000000000  0.6666700000000000  0.9279800000000000
