Ni Hf Te  N 
 1.0000000000000000
     3.3121000000000000    0.0000000000000000    0.0000000000000000
    -1.6560499999999994    2.8683627398744393    0.0000000000000000
     0.0000000000000000    0.0000000000000000    9.0113000000000003
 Ni  Hf  Te  N  
   2   2   2   1
Direct
  0.6666700000000001  0.3333300000000000  0.5675800000000001
  0.3333300000000001  0.6666700000000000  0.4324200000000000
  0.6666700000000001  0.3333300000000000  0.8912800000000000
  0.3333300000000001  0.6666700000000000  0.1087200000000000
  0.6666700000000001  0.3333300000000000  0.3036300000000000
  0.3333300000000001  0.6666700000000000  0.6963700000000000
  0.0000000000000000  0.0000000000000000  0.0000000000000000
