Ca  Y  C Se
 1.0000000000000000
     3.3029999999999999    0.0000000000000000    0.0000000000000000
    -1.6514999999999993    2.8604819087000011    0.0000000000000000
     0.0000000000000000    0.0000000000000000   25.8299999999999983
 Ca  Y   C   Se
   3   6   3   6
Direct
  0.0000000000000000  0.0000000000000000  0.0000000000000000
  0.9117199999999998  0.0882800000000000  0.3101500000000000
  0.0882800000000000  0.9117200000000001  0.6898500000000001
  0.8662999999999997  0.1337000000000000  0.8678600000000000
  0.1337000000000001  0.8663000000000000  0.1321400000000000
  0.7882600000000000  0.2117400000000000  0.1905000000000000
  0.6762599999999998  0.3237400000000000  0.4706000000000000
  0.3237400000000000  0.6762600000000000  0.5294000000000000
  0.2117400000000001  0.7882600000000000  0.8095000000000000
  0.0000000000000000  0.0000000000000000  0.5000000000000000
  0.5415300000000000  0.4584700000000000  0.8385700000000000
  0.4584700000000000  0.5415300000000000  0.1614300000000000
  0.7542799999999997  0.2457200000000000  0.7199500000000002
  0.2457199999999999  0.7542800000000000  0.2800500000000000
  0.6675000000000000  0.3325000000000000  0.0549400000000000
  0.7779500000000000  0.2220500000000000  0.6044800000000000
  0.2220500000000000  0.7779500000000000  0.3955200000000000
  0.3325000000000000  0.6675000000000000  0.9450600000000000
