Ti  S In 
 1.0000000000000000
     3.2709999999999999    0.0000000000000000    0.0000000000000000
    -1.6354999999999993    2.8327690957788989    0.0000000000000000
     0.0000000000000000    0.0000000000000000   25.4780000000000015
 Ti  S   In 
   6   6   3
Direct
  0.9999999999999997  0.9999999999999998  0.5690600000000000
  0.0000000000000000  0.0000000000000000  0.4309400000000000
  0.6666600000000000  0.3333400000000000  0.9023999999999998
  0.6666600000000000  0.3333400000000000  0.7642700000000000
  0.3333400000000000  0.6666600000000000  0.2357300000000000
  0.3333400000000000  0.6666600000000000  0.0976000000000000
  0.0000000000000000  0.0000000000000000  0.7871800000000000
  0.9999999999999997  0.9999999999999998  0.2128200000000000
  0.6666700000000000  0.3333300000000000  0.1205100000000000
  0.6666700000000000  0.3333300000000000  0.5461600000000000
  0.3333300000000000  0.6666700000000000  0.4538400000000000
  0.3333300000000000  0.6666700000000000  0.8794899999999998
  0.0000000000000000  0.0000000000000000  0.0000000000000000
  0.6666600000000000  0.3333400000000000  0.3333300000000000
  0.3333400000000000  0.6666600000000000  0.6666699999999999
