Mo Se Ge 
 1.0000000000000000
     3.2709999999999999    0.0000000000000000    0.0000000000000000
    -1.6354999999999993    2.8327690957788989    0.0000000000000000
     0.0000000000000000    0.0000000000000000   25.4780000000000015
 Mo  Se  Ge 
   6   6   3
Direct
  0.9841999999999999  0.0158000000000000  0.5837800000000000
  0.0158000000000000  0.9841999999999999  0.4162200000000000
  0.6922000000000000  0.3078000000000000  0.9509800000000000
  0.6383500000000000  0.3616500000000000  0.7501300000000000
  0.3616499999999999  0.6383499999999999  0.2498700000000000
  0.3078000000000000  0.6922000000000000  0.0490200000000000
  0.9714400000000000  0.0285600000000000  0.7834899999999999
  0.0285599999999999  0.9714399999999999  0.2165100000000000
  0.7788400000000000  0.2211599999999999  0.1048200000000000
  0.6513399999999999  0.3486600000000000  0.5537800000000000
  0.3486600000000000  0.6513400000000000  0.4462200000000000
  0.2211600000000001  0.7788400000000000  0.8951800000000000
  0.0000000000000000  0.0000000000000000  0.0000000000000000
  0.0254800000000000  0.9745200000000001  0.3239300000000000
  0.9745199999999998  0.0254800000000000  0.6760699999999999
