Na Pt  C  S
 1.0000000000000000
     3.3029999999999999    0.0000000000000000    0.0000000000000000
    -1.6514999999999991    2.8604819087000011    0.0000000000000000
     0.0000000000000000    0.0000000000000000   25.8299999999999983
 Na  Pt  C   S
   3   6   3   6
Direct
  0.0000000000000000  0.0000000000000000  0.0000000000000000
  0.6666700000000000  0.3333300000000000  0.3333300000000001
  0.3333300000000000  0.6666700000000000  0.6666700000000001
  0.0000000000000000  0.0000000000000000  0.8766500000000002
  0.0000000000000000  0.0000000000000000  0.1233500000000000
  0.6666700000000000  0.3333300000000000  0.2099800000000000
  0.6666700000000000  0.3333300000000000  0.4566800000000000
  0.3333300000000000  0.6666700000000000  0.5433200000000000
  0.3333300000000000  0.6666700000000000  0.7900199999999999
  0.0000000000000000  0.0000000000000000  0.5000000000000000
  0.6666700000000000  0.3333300000000000  0.8333300000000000
  0.3333300000000000  0.6666700000000000  0.1666700000000000
  0.0000000000000000  0.0000000000000000  0.7350000000000000
  0.0000000000000000  0.0000000000000000  0.2650000000000000
  0.6666700000000000  0.3333300000000000  0.0683300000000000
  0.6666700000000000  0.3333300000000000  0.5983400000000000
  0.3333300000000000  0.6666700000000000  0.4016600000000000
  0.3333300000000000  0.6666700000000000  0.9316700000000000
