Mo Ge Te 
 1.0000000000000000
     3.3435999999999999    0.0000000000000000    0.0000000000000000
    -1.6717999999999993    2.8956425400936490    0.0000000000000000
     0.0000000000000000    0.0000000000000000   11.5808999999999997
 Mo  Ge  Te 
   4   2   2
Direct
  0.3266300000000000  0.6733700000000000  0.4051500000000001
  0.6733700000000000  0.3266300000000000  0.5948500000000000
  0.6733700000000000  0.3266300000000000  0.9051500000000000
  0.3266300000000000  0.6733700000000000  0.0948500000000000
  0.0000000000000000  0.0000000000000000  0.0000000000000000
  0.0000000000000000  0.0000000000000000  0.5000000000000000
  0.2607099999999999  0.7392900000000000  0.7500000000000000
  0.7392899999999999  0.2607100000000000  0.2500000000000000
