Zn  S Pb 
 1.0000000000000000
     3.2690000000000001    0.0000000000000000    0.0000000000000000
    -1.6344999999999994    2.8310370449713305    0.0000000000000000
     0.0000000000000000    0.0000000000000000    8.5470000000000006
 Zn  S   Pb 
   2   2   1
Direct
  0.5196900000000000  0.2598500000000000  0.7176000000000000
  0.4803099999999998  0.7401500000000000  0.2824000000000000
  0.7186900000000001  0.3593400000000000  0.4596600000000000
  0.2813100000000000  0.6406600000000000  0.5403400000000000
  0.0000000000000000  0.0000000000000000  0.0000000000000000
