Zn Hf  C  S
 1.0000000000000000
     3.3029999999999999    0.0000000000000000    0.0000000000000000
    -1.6514999999999991    2.8604819087000011    0.0000000000000000
     0.0000000000000000    0.0000000000000000   25.8299999999999983
 Zn  Hf  C   S
   3   6   3   6
Direct
  0.0000000000000000  0.0000000000000000  0.0000000000000000
  0.6666700000000000  0.3333300000000000  0.3333300000000001
  0.3333300000000000  0.6666700000000000  0.6666700000000001
  0.0000000000000000  0.0000000000000000  0.8785600000000001
  0.0000000000000000  0.0000000000000000  0.1214400000000000
  0.6666700000000000  0.3333300000000000  0.2119000000000000
  0.6666700000000000  0.3333300000000000  0.4547700000000000
  0.3333300000000000  0.6666700000000000  0.5452300000000000
  0.3333300000000000  0.6666700000000000  0.7881000000000000
  0.0000000000000000  0.0000000000000000  0.5000000000000000
  0.6666700000000000  0.3333300000000000  0.8333300000000000
  0.3333300000000000  0.6666700000000000  0.1666700000000000
  0.0000000000000000  0.0000000000000000  0.7214100000000000
  0.0000000000000000  0.0000000000000000  0.2785900000000000
  0.6666700000000000  0.3333300000000000  0.0547400000000000
  0.6666700000000000  0.3333300000000000  0.6119200000000000
  0.3333300000000000  0.6666700000000000  0.3880800000000000
  0.3333300000000000  0.6666700000000000  0.9452600000000000
