Ag Os  N  S 
 1.0000000000000000
     3.3029999999999999    0.0000000000000000    0.0000000000000000
    -1.6514999999999991    2.8604819087000011    0.0000000000000000
     0.0000000000000000    0.0000000000000000   25.8299999999999983
 Ag  Os  N   S  
   3   6   3   6
Direct
  0.0000000000000000  0.0000000000000000  0.0000000000000000
  0.6666700000000000  0.3333300000000000  0.3333500000000000
  0.3333300000000000  0.6666700000000000  0.6666500000000000
  0.0000100000000001  0.9999900000000002  0.8766100000000000
  0.9999899999999998  0.0000100000000000  0.1233900000000000
  0.6666800000000001  0.3333200000000000  0.2099300000000000
  0.6666600000000000  0.3333400000000000  0.4567300000000000
  0.3333400000000000  0.6666600000000000  0.5432700000000000
  0.3333200000000000  0.6666800000000001  0.7900700000000002
  0.0000000000000000  0.0000000000000000  0.5000000000000000
  0.6666700000000000  0.3333300000000000  0.8334600000000000
  0.3333300000000000  0.6666700000000000  0.1665400000000000
  0.9999800000000000  0.0000200000000000  0.7530800000000000
  0.0000200000000001  0.9999800000000001  0.2469200000000000
  0.6666499999999999  0.3333500000000000  0.0863800000000000
  0.6666800000000001  0.3333200000000000  0.5802600000000000
  0.3333200000000000  0.6666800000000001  0.4197400000000000
  0.3333499999999999  0.6666500000000000  0.9136200000000000
