Fe Ir  C Se
 1.0000000000000000
     3.3029999999999999    0.0000000000000000    0.0000000000000000
    -1.6514999999999993    2.8604819087000011    0.0000000000000000
     0.0000000000000000    0.0000000000000000   25.8299999999999983
 Fe  Ir  C   Se
   3   6   3   6
Direct
  0.0000000000000000  0.0000000000000000  0.0000000000000000
  0.6436100000000000  0.3563900000000000  0.3638600000000000
  0.3563900000000000  0.6436100000000000  0.6361400000000001
  0.9635500000000000  0.0364500000000000  0.8909500000000002
  0.0364500000000000  0.9635500000000000  0.1090500000000000
  0.8031300000000000  0.1968700000000000  0.1926300000000000
  0.7485100000000000  0.2514900000000000  0.4584900000000000
  0.2514900000000000  0.7485100000000000  0.5415100000000000
  0.1968699999999999  0.8031300000000000  0.8073700000000001
  0.0000000000000000  0.0000000000000000  0.5000000000000000
  0.6665300000000000  0.3334700000000000  0.8539300000000001
  0.3334700000000000  0.6665300000000000  0.1460700000000000
  0.8789200000000000  0.1210800000000000  0.7500800000000001
  0.1210799999999999  0.8789199999999999  0.2499200000000000
  0.6802000000000000  0.3198000000000000  0.0506500000000000
  0.6847400000000000  0.3152600000000000  0.6069200000000000
  0.3152600000000000  0.6847400000000000  0.3930800000000000
  0.3198000000000000  0.6802000000000000  0.9493500000000000
