 W  S  N 
 1.0000000000000000
     3.2709999999999999    0.0000000000000000    0.0000000000000000
    -1.6354999999999991    2.8327690957788989    0.0000000000000000
     0.0000000000000000    0.0000000000000000   25.4780000000000015
 W   S   N  
   6   6   3
Direct
  0.9999999999999997  0.9999999999999998  0.6266800000000000
  0.0000000000000000  0.0000000000000000  0.3733200000000000
  0.6666700000000000  0.3333300000000000  0.9600200000000000
  0.6666700000000000  0.3333300000000000  0.7066500000000000
  0.3333300000000000  0.6666700000000000  0.2933500000000000
  0.3333300000000000  0.6666700000000000  0.0399800000000000
  0.9999999999999997  0.9999999999999998  0.7687399999999998
  0.0000000000000000  0.0000000000000000  0.2312600000000000
  0.6666700000000000  0.3333300000000000  0.1020800000000000
  0.6666700000000000  0.3333300000000000  0.5645800000000000
  0.3333300000000000  0.6666700000000000  0.4354200000000000
  0.3333300000000000  0.6666700000000000  0.8979200000000001
  0.0000000000000000  0.0000000000000000  0.0000000000000000
  0.6666700000000000  0.3333300000000000  0.3333300000000000
  0.3333300000000000  0.6666700000000000  0.6666699999999999
