Ru  S Al 
 1.0000000000000000
     3.2690000000000001    0.0000000000000000    0.0000000000000000
    -1.6344999999999994    2.8310370449713305    0.0000000000000000
     0.0000000000000000    0.0000000000000000    8.5470000000000006
 Ru  S   Al 
   2   2   1
Direct
  0.6663100000000000  0.3331600000000000  0.7574600000000000
  0.3336900000000000  0.6668400000000000  0.2425400000000000
  0.6669599999999998  0.3334800000000000  0.3509300000000000
  0.3330400000000000  0.6665200000000000  0.6490700000000000
  0.0000000000000000  0.0000000000000000  0.0000000000000000
