Na Ti  C Te
 1.0000000000000000
     3.3029999999999999    0.0000000000000000    0.0000000000000000
    -1.6514999999999993    2.8604819087000011    0.0000000000000000
     0.0000000000000000    0.0000000000000000   25.8299999999999983
 Na  Ti  C   Te
   3   6   3   6
Direct
  0.0000000000000000  0.0000000000000000  0.0000000000000000
  0.8102700000000000  0.1897300000000000  0.3278100000000000
  0.1897300000000000  0.8102700000000002  0.6721900000000001
  0.8424900000000000  0.1575100000000000  0.8573700000000000
  0.1575099999999999  0.8424900000000000  0.1426300000000000
  0.8313500000000000  0.1686500000000000  0.1917400000000000
  0.6727200000000000  0.3272800000000000  0.4769300000000000
  0.3272800000000000  0.6727200000000000  0.5230700000000000
  0.1686500000000000  0.8313500000000001  0.8082600000000000
  0.0000000000000000  0.0000000000000000  0.5000000000000000
  0.5118800000000000  0.4881200000000000  0.8565600000000000
  0.4881200000000000  0.5118800000000000  0.1434400000000000
  0.8491299999999998  0.1508700000000000  0.7505800000000000
  0.1508700000000000  0.8491300000000001  0.2494200000000000
  0.6739200000000000  0.3260800000000000  0.0780300000000000
  0.8674300000000000  0.1325700000000000  0.5934900000000000
  0.1325700000000000  0.8674300000000000  0.4065100000000000
  0.3260800000000000  0.6739200000000000  0.9219700000000001
