Cu Fe Te  C 
 1.0000000000000000
     3.3121000000000000    0.0000000000000000    0.0000000000000000
    -1.6560499999999991    2.8683627398744393    0.0000000000000000
     0.0000000000000000    0.0000000000000000    9.0113000000000003
 Cu  Fe  Te  C  
   2   2   2   1
Direct
  0.6666600000000003  0.3333300000000000  0.5697300000000000
  0.3333400000000000  0.6666700000000000  0.4302700000000000
  0.6666700000000001  0.3333300000000000  0.9197000000000001
  0.3333300000000001  0.6666700000000000  0.0803000000000000
  0.6666700000000001  0.3333400000000000  0.2545100000000000
  0.3333300000000001  0.6666600000000000  0.7454900000000000
  0.0000000000000000  0.0000000000000000  0.0000000000000000
