Pt Te Sb 
 1.0000000000000000
     3.2690000000000001    0.0000000000000000    0.0000000000000000
    -1.6344999999999994    2.8310370449713305    0.0000000000000000
     0.0000000000000000    0.0000000000000000    8.5470000000000006
 Pt  Te  Sb 
   2   2   1
Direct
  0.6863399999999998  0.3431700000000000  0.8047700000000000
  0.3136599999999999  0.6568300000000000  0.1952300000000000
  0.6319499999999998  0.3159700000000000  0.3996300000000000
  0.3680499999999999  0.6840300000000000  0.6003700000000000
  0.0000000000000000  0.0000000000000000  0.0000000000000000
