Zn  S  B 
 1.0000000000000000
     3.2690000000000001    0.0000000000000000    0.0000000000000000
    -1.6344999999999994    2.8310370449713305    0.0000000000000000
     0.0000000000000000    0.0000000000000000    8.5470000000000006
 Zn  S   B  
   2   2   1
Direct
  0.0027200000000000  0.5013600000000000  0.7866100000000000
  0.9972800000000001  0.4986400000000001  0.2133900000000000
  0.6273599999999998  0.3136800000000000  0.4999400000000000
  0.3726400000000000  0.6863200000000002  0.5000599999999999
  0.0000000000000000  0.0000000000000000  0.0000000000000000
