Ir  S Sn 
 1.0000000000000000
     3.2709999999999999    0.0000000000000000    0.0000000000000000
    -1.6354999999999993    2.8327690957788989    0.0000000000000000
     0.0000000000000000    0.0000000000000000   25.4780000000000015
 Ir  S   Sn 
   6   6   3
Direct
  0.9764200000000000  0.0235800000000000  0.5616500000000000
  0.0235800000000000  0.9764200000000000  0.4383500000000000
  0.7759199999999999  0.2240799999999999  0.8762999999999999
  0.9698799999999997  0.0301200000000000  0.7543899999999998
  0.0301200000000001  0.9698800000000000  0.2456099999999999
  0.2240800000000000  0.7759200000000001  0.1237000000000000
  0.1043000000000000  0.8957000000000001  0.8319099999999999
  0.8957000000000001  0.1043000000000000  0.1680900000000000
  0.5755900000000000  0.4244099999999999  0.1885999999999999
  0.6659700000000000  0.3340299999999999  0.4956800000000000
  0.3340299999999999  0.6659699999999998  0.5043200000000000
  0.4244100000000000  0.5755900000000000  0.8114000000000000
 -0.0000000000000001  0.9999999999999998  0.0000000000000000
  0.7003699999999999  0.2996300000000000  0.3598700000000000
  0.2996299999999999  0.7003699999999999  0.6401299999999999
