Na Mn  S  N 
 1.0000000000000000
     3.3121000000000000    0.0000000000000000    0.0000000000000000
    -1.6560499999999994    2.8683627398744393    0.0000000000000000
     0.0000000000000000    0.0000000000000000    9.0113000000000003
 Na  Mn  S   N  
   2   2   2   1
Direct
  0.6658200000000001  0.3329100000000000  0.5915000000000000
  0.3341800000000000  0.6670900000000000  0.4085000000000000
  0.6660100000000000  0.3330000000000000  0.9113100000000000
  0.3339900000000001  0.6670000000000000  0.0886900000000000
  0.6674900000000001  0.3337400000000000  0.2330700000000000
  0.3325100000000001  0.6662600000000000  0.7669300000000000
  0.0000000000000000  0.0000000000000000  0.0000000000000000
