Hf  S  C 
 1.0000000000000000
     3.2709999999999999    0.0000000000000000    0.0000000000000000
    -1.6354999999999991    2.8327690957788989    0.0000000000000000
     0.0000000000000000    0.0000000000000000   25.4780000000000015
 Hf  S   C  
   6   6   3
Direct
  0.9999999999999997  0.9999999999999998  0.6145699999999999
  0.0000000000000000  0.0000000000000000  0.3854300000000000
  0.6666700000000000  0.3333300000000000  0.9478999999999999
  0.6666700000000000  0.3333300000000000  0.7187600000000000
  0.3333300000000000  0.6666700000000000  0.2812400000000000
  0.3333300000000000  0.6666700000000000  0.0521000000000000
  0.9999999999999997  0.9999999999999998  0.7827499999999999
  0.0000000000000000  0.0000000000000000  0.2172500000000000
  0.6666700000000000  0.3333300000000000  0.1160800000000000
  0.6666700000000000  0.3333300000000000  0.5505800000000000
  0.3333300000000000  0.6666700000000000  0.4494200000000000
  0.3333300000000000  0.6666700000000000  0.8839200000000000
  0.0000000000000000  0.0000000000000000  0.0000000000000000
  0.6666600000000000  0.3333400000000000  0.3333300000000000
  0.3333400000000000  0.6666600000000000  0.6666699999999999
