Co Zn  C Se
 1.0000000000000000
     3.3029999999999999    0.0000000000000000    0.0000000000000000
    -1.6514999999999993    2.8604819087000011    0.0000000000000000
     0.0000000000000000    0.0000000000000000   25.8299999999999983
 Co  Zn  C   Se
   3   6   3   6
Direct
  0.0000000000000000  0.0000000000000000  0.0000000000000000
  0.6666700000000000  0.3333300000000000  0.3333300000000001
  0.3333300000000000  0.6666700000000000  0.6666700000000001
  0.0000000000000000  0.0000000000000000  0.8757200000000001
  0.0000000000000000  0.0000000000000000  0.1242800000000000
  0.6666700000000000  0.3333300000000000  0.2090500000000000
  0.6666700000000000  0.3333300000000000  0.4576100000000000
  0.3333300000000000  0.6666700000000000  0.5423900000000000
  0.3333300000000000  0.6666700000000000  0.7909500000000000
  0.0000000000000000  0.0000000000000000  0.5000000000000000
  0.6666700000000000  0.3333300000000000  0.8333300000000000
  0.3333300000000000  0.6666700000000000  0.1666700000000000
  0.0000000000000000  0.0000000000000000  0.7147600000000000
  0.0000000000000000  0.0000000000000000  0.2852400000000000
  0.6666800000000001  0.3333200000000000  0.0480900000000000
  0.6666600000000000  0.3333400000000000  0.6185800000000000
  0.3333400000000000  0.6666600000000000  0.3814200000000000
  0.3333200000000000  0.6666800000000001  0.9519100000000000
