 W Se Sn 
 1.0000000000000000
     3.2709999999999999    0.0000000000000000    0.0000000000000000
    -1.6354999999999993    2.8327690957788989    0.0000000000000000
     0.0000000000000000    0.0000000000000000   25.4780000000000015
 W   Se  Sn 
   6   6   3
Direct
  0.9999800000000000  0.0000200000000000  0.5823500000000000
  0.0000199999999999  0.9999799999999998  0.4176500000000000
  0.6667100000000000  0.3332900000000000  0.9156900000000000
  0.6666900000000000  0.3333099999999999  0.7509800000000000
  0.3333100000000000  0.6666900000000000  0.2490200000000000
  0.3332900000000000  0.6667100000000000  0.0843100000000000
  0.9999900000000000  0.0000100000000000  0.7831000000000000
  0.0000100000000000  0.9999899999999999  0.2169000000000000
  0.6666800000000001  0.3333199999999999  0.1164300000000000
  0.6666800000000001  0.3333199999999999  0.5502300000000000
  0.3333199999999999  0.6666800000000001  0.4497700000000000
  0.3333199999999999  0.6666800000000001  0.8835699999999997
  0.0000000000000000  0.0000000000000000  0.0000000000000000
  0.6666700000000000  0.3333300000000000  0.3333300000000000
  0.3333300000000000  0.6666700000000000  0.6666699999999999
