 V Te Ge 
 1.0000000000000000
     3.2709999999999999    0.0000000000000000    0.0000000000000000
    -1.6354999999999993    2.8327690957788989    0.0000000000000000
     0.0000000000000000    0.0000000000000000   25.4780000000000015
 V   Te  Ge 
   6   6   3
Direct
  0.0001699999999999  0.9998299999999998  0.6365000000000000
  0.9998300000000000  0.0001700000000000  0.3635000000000000
  0.6666900000000000  0.3333099999999999  0.9698400000000000
  0.6668600000000000  0.3331399999999999  0.6968299999999998
  0.3331400000000000  0.6668600000000000  0.3031700000000000
  0.3333100000000000  0.6666900000000000  0.0301600000000000
  0.9995400000000000  0.0004600000000000  0.7709800000000000
  0.0004599999999999  0.9995399999999999  0.2290200000000000
  0.6668500000000001  0.3331500000000000  0.1043100000000000
  0.6664600000000001  0.3335400000000000  0.5623600000000000
  0.3335400000000000  0.6664600000000001  0.4376399999999999
  0.3331499999999999  0.6668500000000001  0.8956900000000000
  0.0000000000000000  0.0000000000000000  0.0000000000000000
  0.6664699999999999  0.3335300000000000  0.3333300000000000
  0.3335300000000000  0.6664700000000000  0.6666699999999999
