Mn Au  C Se
 1.0000000000000000
     3.3029999999999999    0.0000000000000000    0.0000000000000000
    -1.6514999999999993    2.8604819087000011    0.0000000000000000
     0.0000000000000000    0.0000000000000000   25.8299999999999983
 Mn  Au  C   Se
   3   6   3   6
Direct
  0.0000000000000000  0.0000000000000000  0.0000000000000000
  0.6666700000000000  0.3333300000000000  0.3333300000000001
  0.3333300000000000  0.6666700000000000  0.6666700000000001
  0.9999899999999998  0.0000100000000000  0.8832200000000000
  0.0000100000000001  0.9999900000000002  0.1167800000000000
  0.6666600000000000  0.3333400000000000  0.2165600000000000
  0.6666700000000000  0.3333300000000000  0.4501100000000001
  0.3333300000000000  0.6666700000000000  0.5498900000000000
  0.3333400000000000  0.6666600000000000  0.7834400000000000
  0.0000000000000000  0.0000000000000000  0.5000000000000000
  0.6666700000000000  0.3333300000000000  0.8333300000000000
  0.3333300000000000  0.6666700000000000  0.1666700000000000
  0.0000100000000001  0.9999900000000002  0.7128000000000001
  0.9999899999999998  0.0000100000000000  0.2872000000000000
  0.6666800000000001  0.3333200000000000  0.0461400000000000
  0.6666499999999999  0.3333500000000000  0.6205300000000001
  0.3333499999999999  0.6666500000000000  0.3794700000000000
  0.3333200000000000  0.6666800000000001  0.9538600000000000
