 W  S  B 
 1.0000000000000000
     3.2690000000000001    0.0000000000000000    0.0000000000000000
    -1.6344999999999994    2.8310370449713305    0.0000000000000000
     0.0000000000000000    0.0000000000000000    8.5470000000000006
 W   S   B  
   2   2   1
Direct
  0.6666699999999999  0.3333300000000000  0.9115000000000000
  0.3333299999999999  0.6666700000000000  0.0885000000000000
  0.6665800000000000  0.3332900000000000  0.2994200000000000
  0.3334200000000000  0.6667100000000000  0.7005800000000000
  0.0000000000000000  0.0000000000000000  0.0000000000000000
