Zr Se Pb 
 1.0000000000000000
     3.2690000000000001    0.0000000000000000    0.0000000000000000
    -1.6344999999999994    2.8310370449713305    0.0000000000000000
     0.0000000000000000    0.0000000000000000    8.5470000000000006
 Zr  Se  Pb 
   2   2   1
Direct
  0.6666099999999999  0.3333100000000000  0.7322500000000000
  0.3333900000000001  0.6666900000000001  0.2677500000000000
  0.6667099999999998  0.3333600000000000  0.3618600000000000
  0.3332900000000000  0.6666400000000001  0.6381400000000000
  0.0000000000000000  0.0000000000000000  0.0000000000000000
