Cu Sc  N  S 
 1.0000000000000000
     3.3029999999999999    0.0000000000000000    0.0000000000000000
    -1.6514999999999991    2.8604819087000011    0.0000000000000000
     0.0000000000000000    0.0000000000000000   25.8299999999999983
 Cu  Sc  N   S  
   3   6   3   6
Direct
  0.0000000000000000  0.0000000000000000  0.0000000000000000
  0.7219099999999998  0.2780900000000000  0.3427300000000000
  0.2780899999999999  0.7219100000000001  0.6572700000000000
  0.9969000000000000  0.0031000000000000  0.8728900000000001
  0.0031000000000000  0.9969000000000000  0.1271100000000000
  0.6942100000000000  0.3057900000000000  0.2455500000000000
  0.6822600000000000  0.3177400000000000  0.4714700000000000
  0.3177400000000000  0.6822600000000000  0.5285300000000001
  0.3057900000000000  0.6942100000000000  0.7544500000000000
  0.0000000000000000  0.0000000000000000  0.5000000000000000
  0.6680699999999999  0.3319300000000000  0.8892099999999999
  0.3319300000000000  0.6680700000000001  0.1107900000000000
  0.9725699999999998  0.0274300000000000  0.7536400000000000
  0.0274300000000001  0.9725700000000002  0.2463600000000000
  0.5531600000000000  0.4468400000000000  0.0750300000000000
  0.7743399999999999  0.2256600000000000  0.5886200000000000
  0.2256599999999999  0.7743400000000000  0.4113800000000000
  0.4468400000000000  0.5531600000000000  0.9249700000000000
