Ag Mo  C Te
 1.0000000000000000
     3.3029999999999999    0.0000000000000000    0.0000000000000000
    -1.6514999999999993    2.8604819087000011    0.0000000000000000
     0.0000000000000000    0.0000000000000000   25.8299999999999983
 Ag  Mo  C   Te
   3   6   3   6
Direct
  0.0000000000000000  0.0000000000000000  0.0000000000000000
  0.6635399999999999  0.3364600000000000  0.3354100000000000
  0.3364599999999999  0.6635400000000000  0.6645900000000001
  0.2130000000000000  0.7870000000000000  0.8664900000000000
  0.7870000000000000  0.2130000000000000  0.1335100000000000
  0.4697700000000000  0.5302300000000000  0.1942000000000000
  0.7041800000000000  0.2958200000000000  0.4703600000000000
  0.2958200000000000  0.7041800000000000  0.5296400000000000
  0.5302300000000000  0.4697700000000000  0.8058000000000000
  0.0000000000000000  0.0000000000000000  0.5000000000000000
  0.8619900000000000  0.1380100000000000  0.8127100000000000
  0.1380099999999999  0.8619900000000000  0.1872900000000000
  0.0289500000000000  0.9710500000000000  0.7390099999999999
  0.9710500000000000  0.0289500000000000  0.2609900000000000
  0.4472999999999999  0.5527000000000000  0.0799900000000000
  0.6495299999999999  0.3504700000000001  0.5896800000000000
  0.3504700000000000  0.6495300000000001  0.4103200000000001
  0.5527000000000000  0.4472999999999999  0.9200100000000000
