 V Ti  C Se
 1.0000000000000000
     3.3029999999999999    0.0000000000000000    0.0000000000000000
    -1.6514999999999991    2.8604819087000011    0.0000000000000000
     0.0000000000000000    0.0000000000000000   25.8299999999999983
 V   Ti  C   Se
   3   6   3   6
Direct
  0.0000000000000000  0.0000000000000000  0.0000000000000000
  0.6666700000000000  0.3333300000000000  0.3333300000000001
  0.3333300000000000  0.6666700000000000  0.6666700000000001
  0.0000000000000000  0.0000000000000000  0.8734900000000001
  0.0000000000000000  0.0000000000000000  0.1265100000000000
  0.6666700000000000  0.3333300000000000  0.2068200000000000
  0.6666700000000000  0.3333300000000000  0.4598500000000000
  0.3333300000000000  0.6666700000000000  0.5401500000000000
  0.3333300000000000  0.6666700000000000  0.7931800000000000
  0.0000000000000000  0.0000000000000000  0.5000000000000000
  0.6666700000000000  0.3333300000000000  0.8333300000000000
  0.3333300000000000  0.6666700000000000  0.1666700000000000
  0.0000000000000000  0.0000000000000000  0.7263500000000001
  0.0000000000000000  0.0000000000000000  0.2736500000000000
  0.6666700000000000  0.3333300000000000  0.0596800000000000
  0.6666700000000000  0.3333300000000000  0.6069900000000000
  0.3333300000000000  0.6666700000000000  0.3930100000000000
  0.3333300000000000  0.6666700000000000  0.9403200000000000
