Ca Ru  C  S
 1.0000000000000000
     3.3029999999999999    0.0000000000000000    0.0000000000000000
    -1.6514999999999991    2.8604819087000011    0.0000000000000000
     0.0000000000000000    0.0000000000000000   25.8299999999999983
 Ca  Ru  C   S
   3   6   3   6
Direct
  0.0000000000000000  0.0000000000000000  0.0000000000000000
  0.6666700000000000  0.3333300000000000  0.3333300000000001
  0.3333300000000000  0.6666700000000000  0.6666700000000001
  0.0000000000000000  0.0000000000000000  0.8684800000000000
  0.0000000000000000  0.0000000000000000  0.1315200000000000
  0.6666700000000000  0.3333300000000000  0.2018100000000000
  0.6666700000000000  0.3333300000000000  0.4648600000000001
  0.3333300000000000  0.6666700000000000  0.5351399999999999
  0.3333300000000000  0.6666700000000000  0.7981900000000000
  0.0000000000000000  0.0000000000000000  0.5000000000000000
  0.6666700000000000  0.3333300000000000  0.8333300000000000
  0.3333300000000000  0.6666700000000000  0.1666700000000000
  0.0000000000000000  0.0000000000000000  0.7372900000000000
  0.0000000000000000  0.0000000000000000  0.2627100000000000
  0.6666700000000000  0.3333300000000000  0.0706300000000000
  0.6666700000000000  0.3333300000000000  0.5960400000000000
  0.3333300000000000  0.6666700000000000  0.4039600000000000
  0.3333300000000000  0.6666700000000000  0.9293700000000000
