Sc Ir  C Se
 1.0000000000000000
     3.3029999999999999    0.0000000000000000    0.0000000000000000
    -1.6514999999999993    2.8604819087000011    0.0000000000000000
     0.0000000000000000    0.0000000000000000   25.8299999999999983
 Sc  Ir  C   Se
   3   6   3   6
Direct
  0.0000000000000000  0.0000000000000000  0.0000000000000000
  0.4921600000000000  0.5078400000000000  0.2945300000000000
  0.5078400000000000  0.4921600000000000  0.7054700000000000
  0.9872300000000001  0.0127700000000000  0.8965400000000000
  0.0127700000000000  0.9872300000000001  0.1034600000000000
  0.4936399999999999  0.5063600000000000  0.1954400000000000
  0.6673699999999999  0.3326300000000000  0.4574400000000000
  0.3326300000000000  0.6673700000000000  0.5425600000000000
  0.5063600000000000  0.4936400000000000  0.8045600000000001
  0.0000000000000000  0.0000000000000000  0.5000000000000000
  0.8391700000000000  0.1608300000000000  0.8258100000000000
  0.1608299999999999  0.8391700000000000  0.1741900000000001
  0.1743600000000000  0.8256400000000000  0.7349500000000000
  0.8256399999999999  0.1743600000000000  0.2650500000000000
  0.6726799999999999  0.3273200000000000  0.0500600000000000
  0.6649899999999999  0.3350100000000000  0.5937400000000000
  0.3350099999999999  0.6649900000000000  0.4062600000000000
  0.3273200000000000  0.6726799999999999  0.9499400000000001
