Cd Se Sb 
 1.0000000000000000
     3.2709999999999999    0.0000000000000000    0.0000000000000000
    -1.6354999999999993    2.8327690957788989    0.0000000000000000
     0.0000000000000000    0.0000000000000000   25.4780000000000015
 Cd  Se  Sb 
   6   6   3
Direct
  0.0062299999999999  0.9937699999999999  0.5758900000000000
  0.9937700000000000  0.0062300000000000  0.4241100000000000
  0.6808999999999999  0.3191000000000000  0.9113100000000000
  0.6915600000000000  0.3084400000000000  0.7470200000000000
  0.3084400000000000  0.6915600000000000  0.2529800000000000
  0.3190999999999999  0.6808999999999998  0.0886900000000000
  0.0368100000000000  0.9631899999999999  0.8140400000000000
  0.9631900000000000  0.0368100000000000  0.1859600000000000
  0.6631300000000000  0.3368699999999999  0.1559900000000000
  0.6762200000000000  0.3237800000000000  0.5123200000000000
  0.3237800000000000  0.6762199999999999  0.4876800000000000
  0.3368699999999999  0.6631299999999999  0.8440100000000000
  0.0000000000000000  0.0000000000000000  0.0000000000000000
  0.6347000000000000  0.3653000000000000  0.3410400000000000
  0.3653000000000000  0.6347000000000000  0.6589600000000000
