Os Te Ge 
 1.0000000000000000
     3.2709999999999999    0.0000000000000000    0.0000000000000000
    -1.6354999999999993    2.8327690957788989    0.0000000000000000
     0.0000000000000000    0.0000000000000000   25.4780000000000015
 Os  Te  Ge 
   6   6   3
Direct
  0.9999900000000000  0.0000100000000000  0.6192800000000001
  0.0000100000000000  0.9999899999999999  0.3807200000000000
  0.6666700000000000  0.3333300000000000  0.9526200000000000
  0.6666700000000000  0.3333300000000000  0.7140500000000000
  0.3333300000000000  0.6666700000000000  0.2859500000000000
  0.3333300000000000  0.6666700000000000  0.0473800000000000
  0.0000000000000000  0.0000000000000000  0.7751300000000000
  0.9999999999999997  0.9999999999999998  0.2248700000000000
  0.6666700000000000  0.3333300000000000  0.1084700000000000
  0.6666700000000000  0.3333300000000000  0.5582000000000000
  0.3333300000000000  0.6666700000000000  0.4418000000000000
  0.3333300000000000  0.6666700000000000  0.8915300000000000
  0.0000000000000000  0.0000000000000000  0.0000000000000000
  0.6666700000000000  0.3333300000000000  0.3333300000000000
  0.3333300000000000  0.6666700000000000  0.6666699999999999
