Cd  S As 
 1.0000000000000000
     3.2690000000000001    0.0000000000000000    0.0000000000000000
    -1.6344999999999994    2.8310370449713305    0.0000000000000000
     0.0000000000000000    0.0000000000000000    8.5470000000000006
 Cd  S   As 
   2   2   1
Direct
  0.9999699999999998  0.4999800000000000  0.7609000000000000
  0.0000300000000000  0.5000200000000000  0.2391000000000000
  0.6347299999999999  0.3173700000000000  0.5000000000000000
  0.3652699999999999  0.6826300000000000  0.5000000000000000
  0.0000000000000000  0.0000000000000000  0.0000000000000000
