Fe Rh  C  S
 1.0000000000000000
     3.3029999999999999    0.0000000000000000    0.0000000000000000
    -1.6514999999999991    2.8604819087000011    0.0000000000000000
     0.0000000000000000    0.0000000000000000   25.8299999999999983
 Fe  Rh  C   S
   3   6   3   6
Direct
  0.0000000000000000  0.0000000000000000  0.0000000000000000
  0.6666700000000000  0.3333300000000000  0.3333300000000001
  0.3333300000000000  0.6666700000000000  0.6666700000000001
  0.0000000000000000  0.0000000000000000  0.8717600000000000
  0.0000000000000000  0.0000000000000000  0.1282400000000000
  0.6666700000000000  0.3333300000000000  0.2050900000000000
  0.6666700000000000  0.3333300000000000  0.4615800000000000
  0.3333300000000000  0.6666700000000000  0.5384200000000000
  0.3333300000000000  0.6666700000000000  0.7949100000000000
  0.0000000000000000  0.0000000000000000  0.5000000000000000
  0.6666700000000000  0.3333300000000000  0.8333300000000000
  0.3333300000000000  0.6666700000000000  0.1666700000000000
  0.0000200000000001  0.9999800000000001  0.7157800000000001
  0.9999800000000000  0.0000200000000000  0.2842200000000000
  0.6666900000000000  0.3333100000000000  0.0491200000000000
  0.6666499999999999  0.3333500000000000  0.6175400000000000
  0.3333499999999999  0.6666500000000000  0.3824600000000000
  0.3333099999999999  0.6666900000000000  0.9508799999999999
