Pd Te Sb 
 1.0000000000000000
     3.2709999999999999    0.0000000000000000    0.0000000000000000
    -1.6354999999999993    2.8327690957788989    0.0000000000000000
     0.0000000000000000    0.0000000000000000   25.4780000000000015
 Pd  Te  Sb 
   6   6   3
Direct
  0.9999999999999997  0.9999999999999998  0.6060200000000000
  0.0000000000000000  0.0000000000000000  0.3939800000000000
  0.6666700000000000  0.3333300000000000  0.9393599999999999
  0.6666700000000000  0.3333300000000000  0.7273100000000000
  0.3333300000000000  0.6666700000000000  0.2726900000000000
  0.3333300000000000  0.6666700000000000  0.0606400000000000
  0.9999999999999997  0.9999999999999998  0.7916900000000000
  0.0000000000000000  0.0000000000000000  0.2083100000000000
  0.6666700000000000  0.3333300000000000  0.1250300000000000
  0.6666700000000000  0.3333300000000000  0.5416400000000000
  0.3333300000000000  0.6666700000000000  0.4583600000000000
  0.3333300000000000  0.6666700000000000  0.8749699999999999
  0.0000000000000000  0.0000000000000000  0.0000000000000000
  0.6666700000000000  0.3333300000000000  0.3333300000000000
  0.3333300000000000  0.6666700000000000  0.6666699999999999
