Na Cu  C Te
 1.0000000000000000
     3.3029999999999999    0.0000000000000000    0.0000000000000000
    -1.6514999999999993    2.8604819087000011    0.0000000000000000
     0.0000000000000000    0.0000000000000000   25.8299999999999983
 Na  Cu  C   Te
   3   6   3   6
Direct
  0.0000000000000000  0.0000000000000000  0.0000000000000000
  0.6666700000000000  0.3333300000000000  0.3333300000000001
  0.3333300000000000  0.6666700000000000  0.6666700000000001
  0.0000000000000000  0.0000000000000000  0.8720900000000000
  0.0000000000000000  0.0000000000000000  0.1279100000000000
  0.6666700000000000  0.3333300000000000  0.2054200000000000
  0.6666700000000000  0.3333300000000000  0.4612500000000000
  0.3333300000000000  0.6666700000000000  0.5387500000000000
  0.3333300000000000  0.6666700000000000  0.7945800000000000
  0.0000000000000000  0.0000000000000000  0.5000000000000000
  0.6666900000000000  0.3333100000000000  0.8333300000000000
  0.3333099999999999  0.6666900000000000  0.1666700000000000
  0.9999899999999998  0.0000100000000000  0.7294700000000001
  0.0000100000000001  0.9999900000000002  0.2705300000000000
  0.6666700000000000  0.3333300000000000  0.0628000000000000
  0.6666700000000000  0.3333300000000000  0.6038700000000000
  0.3333300000000000  0.6666700000000000  0.3961300000000000
  0.3333300000000000  0.6666700000000000  0.9372000000000000
