Ti Te Pb 
 1.0000000000000000
     3.2709999999999999    0.0000000000000000    0.0000000000000000
    -1.6354999999999993    2.8327690957788989    0.0000000000000000
     0.0000000000000000    0.0000000000000000   25.4780000000000015
 Ti  Te  Pb 
   6   6   3
Direct
  0.9999999999999997  0.9999999999999998  0.5838400000000000
  0.0000000000000000  0.0000000000000000  0.4161600000000000
  0.6666700000000000  0.3333300000000000  0.9171799999999999
  0.6666700000000000  0.3333300000000000  0.7494900000000000
  0.3333300000000000  0.6666700000000000  0.2505100000000000
  0.3333300000000000  0.6666700000000000  0.0828200000000000
  0.9999999999999997  0.9999999999999998  0.7828400000000000
  0.0000000000000000  0.0000000000000000  0.2171599999999999
  0.6666700000000000  0.3333300000000000  0.1161800000000000
  0.6666700000000000  0.3333300000000000  0.5504900000000000
  0.3333300000000000  0.6666700000000000  0.4495100000000000
  0.3333300000000000  0.6666700000000000  0.8838199999999999
  0.0000000000000000  0.0000000000000000  0.0000000000000000
  0.6666800000000001  0.3333199999999999  0.3333300000000000
  0.3333199999999999  0.6666800000000001  0.6666699999999999
