 W Se  C 
 1.0000000000000000
     3.2690000000000001    0.0000000000000000    0.0000000000000000
    -1.6344999999999992    2.8310370449713305    0.0000000000000000
     0.0000000000000000    0.0000000000000000    8.5470000000000006
 W   Se  C  
   2   2   1
Direct
  0.6666799999999998  0.3333400000000000  0.8786400000000000
  0.3333199999999999  0.6666600000000000  0.1213600000000000
  0.6666599999999998  0.3333300000000000  0.3309300000000000
  0.3333399999999999  0.6666700000000000  0.6690700000000001
  0.0000000000000000  0.0000000000000000  0.0000000000000000
