Cd Se Sn 
 1.0000000000000000
     3.2690000000000001    0.0000000000000000    0.0000000000000000
    -1.6344999999999994    2.8310370449713305    0.0000000000000000
     0.0000000000000000    0.0000000000000000    8.5470000000000006
 Cd  Se  Sn 
   2   2   1
Direct
  0.7221600000000001  0.3610800000000001  0.7430000000000000
  0.2778400000000000  0.6389200000000002  0.2570000000000000
  0.6194199999999999  0.3097100000000000  0.4467600000000000
  0.3805799999999999  0.6902900000000000  0.5532400000000000
  0.0000000000000000  0.0000000000000000  0.0000000000000000
