Os Se  N 
 1.0000000000000000
     3.2709999999999999    0.0000000000000000    0.0000000000000000
    -1.6354999999999991    2.8327690957788989    0.0000000000000000
     0.0000000000000000    0.0000000000000000   25.4780000000000015
 Os  Se  N  
   6   6   3
Direct
  0.0000900000000000  0.9999100000000000  0.6118800000000000
  0.9999100000000000  0.0000900000000000  0.3881200000000000
  0.6666700000000000  0.3333300000000000  0.9594900000000000
  0.6666200000000000  0.3333800000000000  0.7077300000000000
  0.3333799999999999  0.6666199999999999  0.2922700000000000
  0.3333300000000000  0.6666700000000000  0.0405100000000000
  0.9999200000000000  0.0000800000000000  0.7760500000000000
  0.0000799999999998  0.9999199999999998  0.2239500000000000
  0.6666800000000001  0.3333199999999999  0.1034200000000000
  0.6667500000000000  0.3332500000000000  0.5560000000000000
  0.3332500000000000  0.6667500000000000  0.4440000000000000
  0.3333199999999999  0.6666800000000001  0.8965799999999999
  0.0000000000000000  0.0000000000000000  0.0000000000000000
  0.6667199999999998  0.3332800000000000  0.3181400000000000
  0.3332800000000000  0.6667200000000000  0.6818599999999999
