Os Se Ga 
 1.0000000000000000
     3.2709999999999999    0.0000000000000000    0.0000000000000000
    -1.6354999999999993    2.8327690957788989    0.0000000000000000
     0.0000000000000000    0.0000000000000000   25.4780000000000015
 Os  Se  Ga 
   6   6   3
Direct
  0.9998000000000000  0.0002000000000000  0.5904700000000001
  0.0001999999999999  0.9997999999999999  0.4095300000000000
  0.6667699999999999  0.3332300000000000  0.9238100000000000
  0.6668500000000001  0.3331500000000000  0.7428700000000000
  0.3331499999999999  0.6668500000000001  0.2571300000000000
  0.3332300000000000  0.6667700000000000  0.0761900000000000
  0.0001600000000000  0.9998400000000000  0.7849599999999999
  0.9998399999999998  0.0001600000000000  0.2150400000000000
  0.6665700000000000  0.3334300000000000  0.1182800000000000
  0.6665100000000000  0.3334900000000000  0.5483800000000000
  0.3334900000000000  0.6665100000000000  0.4516200000000000
  0.3334300000000000  0.6665700000000000  0.8817199999999999
  0.0000000000000000  0.0000000000000000  0.0000000000000000
  0.6666299999999999  0.3333700000000000  0.3333300000000000
  0.3333699999999999  0.6666299999999997  0.6666699999999999
