Pt  S  N 
 1.0000000000000000
     3.2709999999999999    0.0000000000000000    0.0000000000000000
    -1.6354999999999991    2.8327690957788989    0.0000000000000000
     0.0000000000000000    0.0000000000000000   25.4780000000000015
 Pt  S   N  
   6   6   3
Direct
  0.9999999999999997  0.9999999999999998  0.6133000000000000
  0.0000000000000000  0.0000000000000000  0.3867000000000000
  0.6666600000000000  0.3333400000000000  0.9466400000000000
  0.6666700000000000  0.3333300000000000  0.7200299999999998
  0.3333300000000000  0.6666700000000000  0.2799700000000000
  0.3333400000000000  0.6666600000000000  0.0533600000000000
  0.9999999999999997  0.9999999999999998  0.7721400000000000
  0.0000000000000000  0.0000000000000000  0.2278600000000000
  0.6666700000000000  0.3333300000000000  0.1054800000000000
  0.6666700000000000  0.3333300000000000  0.5611900000000000
  0.3333300000000000  0.6666700000000000  0.4388099999999999
  0.3333300000000000  0.6666700000000000  0.8945200000000000
  0.0000000000000000  0.0000000000000000  0.0000000000000000
  0.6666700000000000  0.3333300000000000  0.3333300000000000
  0.3333300000000000  0.6666700000000000  0.6666699999999999
