Mg Zr  C  S
 1.0000000000000000
     3.3029999999999999    0.0000000000000000    0.0000000000000000
    -1.6514999999999991    2.8604819087000011    0.0000000000000000
     0.0000000000000000    0.0000000000000000   25.8299999999999983
 Mg  Zr  C   S
   3   6   3   6
Direct
  0.0000000000000000  0.0000000000000000  0.0000000000000000
  0.6666700000000000  0.3333300000000000  0.3333300000000001
  0.3333300000000000  0.6666700000000000  0.6666700000000001
  0.0000000000000000  0.0000000000000000  0.8787500000000001
  0.0000000000000000  0.0000000000000000  0.1212500000000000
  0.6666700000000000  0.3333300000000000  0.2120800000000000
  0.6666700000000000  0.3333300000000000  0.4545800000000000
  0.3333300000000000  0.6666700000000000  0.5454200000000000
  0.3333300000000000  0.6666700000000000  0.7879200000000000
  0.0000000000000000  0.0000000000000000  0.5000000000000000
  0.6666700000000000  0.3333300000000000  0.8333300000000000
  0.3333300000000000  0.6666700000000000  0.1666700000000000
  0.0000000000000000  0.0000000000000000  0.7219300000000000
  0.0000000000000000  0.0000000000000000  0.2780700000000000
  0.6666700000000000  0.3333300000000000  0.0552600000000000
  0.6666700000000000  0.3333300000000000  0.6114100000000000
  0.3333300000000000  0.6666700000000000  0.3885900000000000
  0.3333300000000000  0.6666700000000000  0.9447400000000000
