Ca Ir Te  N 
 1.0000000000000000
     3.3121000000000000    0.0000000000000000    0.0000000000000000
    -1.6560499999999994    2.8683627398744393    0.0000000000000000
     0.0000000000000000    0.0000000000000000    9.0113000000000003
 Ca  Ir  Te  N  
   2   2   2   1
Direct
  0.6666600000000003  0.3333300000000000  0.5593700000000000
  0.3333400000000000  0.6666700000000000  0.4406300000000000
  0.6666600000000003  0.3333300000000000  0.9005300000000001
  0.3333400000000000  0.6666700000000000  0.0994700000000000
  0.6666700000000001  0.3333400000000000  0.2551900000000000
  0.3333300000000001  0.6666600000000000  0.7448100000000000
  0.0000000000000000  0.0000000000000000  0.0000000000000000
