Zn Se In 
 1.0000000000000000
     3.2709999999999999    0.0000000000000000    0.0000000000000000
    -1.6354999999999993    2.8327690957788989    0.0000000000000000
     0.0000000000000000    0.0000000000000000   25.4780000000000015
 Zn  Se  In 
   6   6   3
Direct
  0.9807399999999998  0.0192600000000000  0.5830600000000000
  0.0192599999999999  0.9807399999999997  0.4169400000000000
  0.6872300000000000  0.3127699999999999  0.9164099999999999
  0.5977500000000000  0.4022499999999999  0.7506600000000000
  0.4022500000000000  0.5977500000000000  0.2493400000000000
  0.3127699999999999  0.6872299999999999  0.0835900000000000
  0.9961700000000000  0.0038300000000000  0.8162000000000000
  0.0038299999999999  0.9961699999999998  0.1838000000000000
  0.7100899999999999  0.2899100000000000  0.1488200000000000
  0.6870000000000001  0.3130000000000000  0.5158800000000000
  0.3129999999999999  0.6869999999999999  0.4841200000000000
  0.2899099999999999  0.7100900000000000  0.8511799999999999
  0.0000000000000000  0.0000000000000000  0.0000000000000000
  0.7147300000000000  0.2852700000000000  0.3328800000000000
  0.2852700000000000  0.7147300000000000  0.6671200000000000
