Cu Hf  C  S
 1.0000000000000000
     3.3029999999999999    0.0000000000000000    0.0000000000000000
    -1.6514999999999991    2.8604819087000011    0.0000000000000000
     0.0000000000000000    0.0000000000000000   25.8299999999999983
 Cu  Hf  C   S
   3   6   3   6
Direct
  0.0000000000000000  0.0000000000000000  0.0000000000000000
  0.6666700000000000  0.3333300000000000  0.3333300000000001
  0.3333300000000000  0.6666700000000000  0.6666700000000001
  0.0000000000000000  0.0000000000000000  0.8810800000000001
  0.0000000000000000  0.0000000000000000  0.1189200000000000
  0.6666700000000000  0.3333300000000000  0.2144100000000000
  0.6666700000000000  0.3333300000000000  0.4522600000000000
  0.3333300000000000  0.6666700000000000  0.5477400000000000
  0.3333300000000000  0.6666700000000000  0.7855900000000000
  0.0000000000000000  0.0000000000000000  0.5000000000000000
  0.6666700000000000  0.3333300000000000  0.8333300000000000
  0.3333300000000000  0.6666700000000000  0.1666700000000000
  0.0000000000000000  0.0000000000000000  0.7211800000000000
  0.0000000000000000  0.0000000000000000  0.2788200000000000
  0.6666700000000000  0.3333300000000000  0.0545200000000000
  0.6666700000000000  0.3333300000000000  0.6121500000000000
  0.3333300000000000  0.6666700000000000  0.3878500000000000
  0.3333300000000000  0.6666700000000000  0.9454800000000000
