 V Mo  C Se
 1.0000000000000000
     3.3029999999999999    0.0000000000000000    0.0000000000000000
    -1.6514999999999993    2.8604819087000011    0.0000000000000000
     0.0000000000000000    0.0000000000000000   25.8299999999999983
 V   Mo  C   Se
   3   6   3   6
Direct
  0.0000000000000000  0.0000000000000000  0.0000000000000000
  0.3452899999999999  0.6547100000000000  0.3188500000000000
  0.6547099999999999  0.3452900000000000  0.6811500000000000
  0.0006900000000000  0.9993100000000000  0.9010200000000000
  0.9993100000000000  0.0006900000000000  0.0989800000000000
  0.6658199999999999  0.3341800000000000  0.1551100000000000
  0.6679000000000000  0.3321000000000000  0.4716900000000000
  0.3321000000000000  0.6679000000000000  0.5283099999999999
  0.3341799999999999  0.6658200000000000  0.8448900000000000
  0.0000000000000000  0.0000000000000000  0.5000000000000000
  0.6674799999999997  0.3325200000000000  0.8469500000000002
  0.3325200000000000  0.6674800000000000  0.1530500000000000
  0.3216700000000000  0.6783300000000000  0.7095399999999999
  0.6783299999999998  0.3216700000000000  0.2904600000000000
  0.6664800000000000  0.3335200000000000  0.0448400000000000
  0.6582200000000000  0.3417800000000000  0.5916500000000000
  0.3417799999999999  0.6582200000000000  0.4083500000000000
  0.3335199999999999  0.6664800000000000  0.9551600000000000
