Pd Se Ge 
 1.0000000000000000
     3.2690000000000001    0.0000000000000000    0.0000000000000000
    -1.6344999999999994    2.8310370449713305    0.0000000000000000
     0.0000000000000000    0.0000000000000000    8.5470000000000006
 Pd  Se  Ge 
   2   2   1
Direct
  0.6674299999999999  0.3337100000000001  0.8293300000000000
  0.3325699999999999  0.6662900000000000  0.1706700000000000
  0.6032299999999999  0.3016100000000000  0.4159900000000000
  0.3967700000000000  0.6983900000000000  0.5840100000000000
  0.0000000000000000  0.0000000000000000  0.0000000000000000
