Ti Sc  C Se
 1.0000000000000000
     3.3029999999999999    0.0000000000000000    0.0000000000000000
    -1.6514999999999991    2.8604819087000011    0.0000000000000000
     0.0000000000000000    0.0000000000000000   25.8299999999999983
 Ti  Sc  C   Se
   3   6   3   6
Direct
  0.0000000000000000  0.0000000000000000  0.0000000000000000
  0.6666700000000000  0.3333300000000000  0.3333300000000001
  0.3333300000000000  0.6666700000000000  0.6666700000000001
  0.0000000000000000  0.0000000000000000  0.8761700000000000
  0.0000000000000000  0.0000000000000000  0.1238300000000000
  0.6666700000000000  0.3333300000000000  0.2095000000000000
  0.6666700000000000  0.3333300000000000  0.4571600000000000
  0.3333300000000000  0.6666700000000000  0.5428400000000000
  0.3333300000000000  0.6666700000000000  0.7905000000000000
  0.0000000000000000  0.0000000000000000  0.5000000000000000
  0.6666700000000000  0.3333300000000000  0.8333300000000000
  0.3333300000000000  0.6666700000000000  0.1666700000000000
  0.0000000000000000  0.0000000000000000  0.7249400000000000
  0.0000000000000000  0.0000000000000000  0.2750600000000000
  0.6666700000000000  0.3333300000000000  0.0582700000000000
  0.6666700000000000  0.3333300000000000  0.6084000000000001
  0.3333300000000000  0.6666700000000000  0.3916000000000000
  0.3333300000000000  0.6666700000000000  0.9417300000000002
