Nb Ge Te 
 1.0000000000000000
     3.3435999999999999    0.0000000000000000    0.0000000000000000
    -1.6717999999999993    2.8956425400936490    0.0000000000000000
     0.0000000000000000    0.0000000000000000   11.5808999999999997
 Nb  Ge  Te 
   4   2   2
Direct
  0.3333200000000000  0.6666800000000001  0.4296599999999999
  0.6666800000000001  0.3333200000000000  0.5703400000000000
  0.6666800000000001  0.3333200000000000  0.9296600000000000
  0.3333200000000000  0.6666800000000001  0.0703400000000000
  0.0000000000000000  0.0000000000000000  0.0000000000000000
  0.0000000000000000  0.0000000000000000  0.5000000000000000
  0.3332400000000000  0.6667600000000000  0.7500000000000000
  0.6667600000000000  0.3332400000000000  0.2500000000000000
