 W  S Ge 
 1.0000000000000000
     3.2690000000000001    0.0000000000000000    0.0000000000000000
    -1.6344999999999994    2.8310370449713305    0.0000000000000000
     0.0000000000000000    0.0000000000000000    8.5470000000000006
 W   S   Ge 
   2   2   1
Direct
  0.0349100000000000  0.5174600000000000  0.7514700000000000
  0.9650900000000000  0.4825400000000001  0.2485300000000000
  0.3082900000000000  0.1541400000000000  0.3355400000000000
  0.6917100000000000  0.8458600000000002  0.6644600000000001
  0.0000000000000000  0.0000000000000000  0.0000000000000000
