Ag Os  C  S
 1.0000000000000000
     3.3029999999999999    0.0000000000000000    0.0000000000000000
    -1.6514999999999991    2.8604819087000011    0.0000000000000000
     0.0000000000000000    0.0000000000000000   25.8299999999999983
 Ag  Os  C   S
   3   6   3   6
Direct
  0.0000000000000000  0.0000000000000000  0.0000000000000000
  0.6666700000000000  0.3333300000000000  0.3333300000000001
  0.3333300000000000  0.6666700000000000  0.6666700000000001
  0.0000000000000000  0.0000000000000000  0.8685000000000000
  0.0000000000000000  0.0000000000000000  0.1315000000000000
  0.6666700000000000  0.3333300000000000  0.2018200000000000
  0.6666700000000000  0.3333300000000000  0.4648400000000000
  0.3333300000000000  0.6666700000000000  0.5351600000000000
  0.3333300000000000  0.6666700000000000  0.7981800000000000
  0.0000000000000000  0.0000000000000000  0.5000000000000000
  0.6666700000000000  0.3333300000000000  0.8333300000000000
  0.3333300000000000  0.6666700000000000  0.1666700000000000
  0.0000000000000000  0.0000000000000000  0.7386400000000000
  0.0000000000000000  0.0000000000000000  0.2613600000000000
  0.6666700000000000  0.3333300000000000  0.0719700000000000
  0.6666600000000000  0.3333400000000000  0.5947000000000000
  0.3333400000000000  0.6666600000000000  0.4053000000000000
  0.3333300000000000  0.6666700000000000  0.9280300000000001
