 Y Se  B 
 1.0000000000000000
     3.2709999999999999    0.0000000000000000    0.0000000000000000
    -1.6354999999999993    2.8327690957788989    0.0000000000000000
     0.0000000000000000    0.0000000000000000   25.4780000000000015
 Y   Se  B  
   6   6   3
Direct
  0.0102199999999999  0.9897799999999998  0.6362000000000000
  0.9897799999999998  0.0102200000000000  0.3638000000000000
  0.6747399999999999  0.3252600000000000  0.9695700000000000
  0.6818500000000000  0.3181499999999999  0.6975900000000000
  0.3181499999999999  0.6818499999999998  0.3024100000000000
  0.3252600000000000  0.6747400000000000  0.0304300000000000
  0.9355100000000002  0.0644900000000000  0.7867400000000000
  0.0644900000000000  0.9355099999999998  0.2132600000000000
  0.7588699999999999  0.2411300000000000  0.1154400000000000
  0.7466500000000000  0.2533500000000000  0.5441200000000000
  0.2533500000000000  0.7466499999999999  0.4558800000000000
  0.2411300000000000  0.7588700000000000  0.8845599999999998
  0.0000000000000000  0.0000000000000000  0.0000000000000000
  0.6544800000000000  0.3455200000000000  0.3336100000000000
  0.3455200000000000  0.6544800000000000  0.6663900000000000
