Zn Mo  C Te
 1.0000000000000000
     3.3029999999999999    0.0000000000000000    0.0000000000000000
    -1.6514999999999993    2.8604819087000011    0.0000000000000000
     0.0000000000000000    0.0000000000000000   25.8299999999999983
 Zn  Mo  C   Te
   3   6   3   6
Direct
  0.0000000000000000  0.0000000000000000  0.0000000000000000
  0.5940500000000000  0.4059500000000000  0.3267400000000000
  0.4059500000000000  0.5940500000000000  0.6732600000000000
  0.0085700000000000  0.9914300000000000  0.8690500000000000
  0.9914300000000000  0.0085700000000000  0.1309500000000000
  0.6545100000000000  0.3454900000000000  0.1866900000000000
  0.6579199999999999  0.3420800000000000  0.4727500000000000
  0.3420800000000000  0.6579199999999999  0.5272500000000000
  0.3454900000000000  0.6545100000000000  0.8133100000000000
  0.0000000000000000  0.0000000000000000  0.5000000000000000
  0.6758199999999998  0.3241800000000000  0.8082400000000001
  0.3241800000000000  0.6758200000000000  0.1917600000000000
  0.0176000000000000  0.9824000000000001  0.7553500000000001
  0.9824000000000001  0.0176000000000000  0.2446500000000000
  0.6584600000000000  0.3415400000000000  0.0815000000000000
  0.7484900000000000  0.2515100000000000  0.5881100000000000
  0.2515100000000001  0.7484900000000000  0.4118900000000000
  0.3415400000000000  0.6584600000000000  0.9185000000000000
