Ca Os  C Se
 1.0000000000000000
     3.3029999999999999    0.0000000000000000    0.0000000000000000
    -1.6514999999999993    2.8604819087000011    0.0000000000000000
     0.0000000000000000    0.0000000000000000   25.8299999999999983
 Ca  Os  C   Se
   3   6   3   6
Direct
  0.0000000000000000  0.0000000000000000  0.0000000000000000
  0.6657399999999999  0.3342600000000000  0.3091700000000000
  0.3342600000000000  0.6657400000000000  0.6908300000000001
  0.0019300000000001  0.9980700000000000  0.8885700000000000
  0.9980700000000000  0.0019300000000000  0.1114300000000000
  0.6688700000000000  0.3311300000000000  0.2018800000000000
  0.6204100000000000  0.3795900000000000  0.4595800000000000
  0.3795900000000000  0.6204100000000000  0.5404200000000000
  0.3311300000000000  0.6688700000000000  0.7981200000000001
  0.0000000000000000  0.0000000000000000  0.5000000000000000
  0.6640400000000000  0.3359600000000000  0.8162600000000000
  0.3359600000000000  0.6640400000000000  0.1837400000000000
  0.0010300000000001  0.9989700000000001  0.7221300000000000
  0.9989700000000000  0.0010300000000000  0.2778700000000000
  0.6652600000000000  0.3347400000000000  0.0687400000000000
  0.7056499999999998  0.2943500000000000  0.5912100000000000
  0.2943500000000000  0.7056500000000000  0.4087900000000000
  0.3347400000000000  0.6652600000000000  0.9312600000000000
