Zn  S  B 
 1.0000000000000000
     3.2709999999999999    0.0000000000000000    0.0000000000000000
    -1.6354999999999993    2.8327690957788989    0.0000000000000000
     0.0000000000000000    0.0000000000000000   25.4780000000000015
 Zn  S   B  
   6   6   3
Direct
  0.8709700000000000  0.1290300000000000  0.5866400000000001
  0.1290300000000000  0.8709700000000000  0.4133599999999999
  0.7989300000000000  0.2010699999999999  0.9222100000000000
  0.8368700000000000  0.1631300000000000  0.7407299999999999
  0.1631300000000000  0.8368699999999999  0.2592700000000000
  0.2010699999999999  0.7989299999999998  0.0777900000000000
  0.1884799999999999  0.8115199999999998  0.8331600000000000
  0.8115199999999999  0.1884800000000000  0.1668400000000000
  0.5149300000000000  0.4850700000000000  0.1672700000000000
  0.6880800000000000  0.3119200000000000  0.5065200000000000
  0.3119200000000000  0.6880800000000000  0.4934800000000000
  0.4850700000000000  0.5149299999999999  0.8327300000000000
  0.0000000000000000  0.0000000000000000  0.0000000000000000
  0.9516699999999999  0.0483300000000000  0.3388000000000000
  0.0483300000000000  0.9516700000000000  0.6612000000000000
