Na Zn  C Se
 1.0000000000000000
     3.3029999999999999    0.0000000000000000    0.0000000000000000
    -1.6514999999999993    2.8604819087000011    0.0000000000000000
     0.0000000000000000    0.0000000000000000   25.8299999999999983
 Na  Zn  C   Se
   3   6   3   6
Direct
  0.0000000000000000  0.0000000000000000  0.0000000000000000
  0.6666700000000000  0.3333300000000000  0.3333300000000001
  0.3333300000000000  0.6666700000000000  0.6666700000000001
  0.0000000000000000  0.0000000000000000  0.8793700000000000
  0.0000000000000000  0.0000000000000000  0.1206300000000000
  0.6666700000000000  0.3333300000000000  0.2127000000000000
  0.6666700000000000  0.3333300000000000  0.4539700000000000
  0.3333300000000000  0.6666700000000000  0.5460300000000000
  0.3333300000000000  0.6666700000000000  0.7873000000000000
  0.0000000000000000  0.0000000000000000  0.5000000000000000
  0.6666900000000000  0.3333100000000000  0.8333300000000000
  0.3333099999999999  0.6666900000000000  0.1666700000000000
  0.9999899999999998  0.0000100000000000  0.7208500000000000
  0.0000100000000001  0.9999900000000002  0.2791500000000000
  0.6666700000000000  0.3333300000000000  0.0541800000000000
  0.6666700000000000  0.3333300000000000  0.6124800000000000
  0.3333300000000000  0.6666700000000000  0.3875200000000000
  0.3333300000000000  0.6666700000000000  0.9458200000000000
