Mg Rh Te  C 
 1.0000000000000000
     3.3121000000000000    0.0000000000000000    0.0000000000000000
    -1.6560499999999991    2.8683627398744393    0.0000000000000000
     0.0000000000000000    0.0000000000000000    9.0113000000000003
 Mg  Rh  Te  C  
   2   2   2   1
Direct
  0.6666600000000003  0.3333300000000000  0.5719700000000000
  0.3333400000000000  0.6666700000000000  0.4280300000000000
  0.6666600000000003  0.3333300000000000  0.9098999999999999
  0.3333400000000000  0.6666700000000000  0.0901000000000000
  0.6666700000000001  0.3333400000000000  0.2625200000000000
  0.3333300000000001  0.6666600000000000  0.7374800000000000
  0.0000000000000000  0.0000000000000000  0.0000000000000000
