Au Te In 
 1.0000000000000000
     3.2709999999999999    0.0000000000000000    0.0000000000000000
    -1.6354999999999993    2.8327690957788989    0.0000000000000000
     0.0000000000000000    0.0000000000000000   25.4780000000000015
 Au  Te  In 
   6   6   3
Direct
  0.0268000000000000  0.9732000000000000  0.6037900000000000
  0.9732000000000000  0.0268000000000000  0.3962100000000000
  0.6649900000000000  0.3350100000000000  0.9327600000000000
  0.6918600000000000  0.3081400000000000  0.7410499999999998
  0.3081400000000000  0.6918600000000000  0.2589500000000000
  0.3350099999999999  0.6649899999999999  0.0672400000000000
  0.0331699999999999  0.9668299999999999  0.8077700000000000
  0.9668300000000000  0.0331700000000000  0.1922300000000000
  0.6734599999999998  0.3265399999999999  0.1338600000000000
  0.6953400000000000  0.3046599999999999  0.5330500000000000
  0.3046599999999999  0.6953399999999998  0.4669500000000000
  0.3265399999999999  0.6734599999999999  0.8661399999999999
  0.0000000000000000  0.0000000000000000  0.0000000000000000
  0.6437000000000000  0.3562999999999999  0.3275399999999999
  0.3563000000000000  0.6437000000000000  0.6724599999999998
