Au  S In 
 1.0000000000000000
     3.2709999999999999    0.0000000000000000    0.0000000000000000
    -1.6354999999999993    2.8327690957788989    0.0000000000000000
     0.0000000000000000    0.0000000000000000   25.4780000000000015
 Au  S   In 
   6   6   3
Direct
  0.0071000000000000  0.9928999999999999  0.5775800000000000
  0.9928999999999999  0.0071000000000000  0.4224199999999999
  0.6625099999999999  0.3374900000000000  0.9113500000000000
  0.6703800000000000  0.3296200000000000  0.7553999999999998
  0.3296200000000000  0.6703800000000000  0.2446000000000000
  0.3374900000000000  0.6625100000000000  0.0886500000000000
  0.0125599999999999  0.9874399999999999  0.8228400000000000
  0.9874399999999999  0.0125600000000000  0.1771600000000000
  0.6794500000000000  0.3205500000000000  0.1560400000000000
  0.6792000000000000  0.3208000000000000  0.5105600000000000
  0.3207999999999999  0.6791999999999999  0.4894400000000000
  0.3205499999999999  0.6794500000000000  0.8439599999999998
  0.0000000000000000  0.0000000000000000  0.0000000000000000
  0.6686400000000000  0.3313600000000000  0.3332400000000000
  0.3313599999999999  0.6686399999999999  0.6667600000000000
