Zn Cu  N Se 
 1.0000000000000000
     3.3029999999999999    0.0000000000000000    0.0000000000000000
    -1.6514999999999991    2.8604819087000011    0.0000000000000000
     0.0000000000000000    0.0000000000000000   25.8299999999999983
 Zn  Cu  N   Se 
   3   6   3   6
Direct
  0.0000000000000000  0.0000000000000000  0.0000000000000000
  0.6666700000000000  0.3333300000000000  0.3333300000000001
  0.3333300000000000  0.6666700000000000  0.6666700000000001
  0.0000000000000000  0.0000000000000000  0.8701800000000000
  0.0000000000000000  0.0000000000000000  0.1298200000000000
  0.6666700000000000  0.3333300000000000  0.2033900000000000
  0.6666600000000000  0.3333400000000000  0.4632100000000000
  0.3333400000000000  0.6666600000000000  0.5367900000000000
  0.3333300000000000  0.6666700000000000  0.7966100000000002
  0.0000000000000000  0.0000000000000000  0.5000000000000000
  0.6666900000000000  0.3333100000000000  0.8336000000000000
  0.3333099999999999  0.6666900000000000  0.1664000000000000
  0.9999800000000000  0.0000200000000000  0.7427100000000001
  0.0000200000000001  0.9999800000000001  0.2572900000000000
  0.6666700000000000  0.3333300000000000  0.0760100000000000
  0.6666800000000001  0.3333200000000000  0.5906500000000000
  0.3333200000000000  0.6666800000000001  0.4093500000000000
  0.3333300000000000  0.6666700000000000  0.9239900000000000
