Ag Cr  C Te
 1.0000000000000000
     3.3029999999999999    0.0000000000000000    0.0000000000000000
    -1.6514999999999991    2.8604819087000011    0.0000000000000000
     0.0000000000000000    0.0000000000000000   25.8299999999999983
 Ag  Cr  C   Te
   3   6   3   6
Direct
  0.0000000000000000  0.0000000000000000  0.0000000000000000
  0.6666700000000000  0.3333300000000000  0.3333300000000001
  0.3333300000000000  0.6666700000000000  0.6666700000000001
  0.0000000000000000  0.0000000000000000  0.8609800000000000
  0.0000000000000000  0.0000000000000000  0.1390200000000000
  0.6666700000000000  0.3333300000000000  0.1943100000000000
  0.6666700000000000  0.3333300000000000  0.4723500000000000
  0.3333300000000000  0.6666700000000000  0.5276500000000000
  0.3333300000000000  0.6666700000000000  0.8056900000000001
  0.0000000000000000  0.0000000000000000  0.5000000000000000
  0.6666700000000000  0.3333300000000000  0.8333300000000000
  0.3333300000000000  0.6666700000000000  0.1666700000000000
  0.0000000000000000  0.0000000000000000  0.7410500000000001
  0.0000000000000000  0.0000000000000000  0.2589500000000000
  0.6666700000000000  0.3333300000000000  0.0743800000000000
  0.6666600000000000  0.3333400000000000  0.5922900000000000
  0.3333400000000000  0.6666600000000000  0.4077100000000000
  0.3333300000000000  0.6666700000000000  0.9256200000000000
