Ag Te  P 
 1.0000000000000000
     3.2709999999999999    0.0000000000000000    0.0000000000000000
    -1.6354999999999993    2.8327690957788989    0.0000000000000000
     0.0000000000000000    0.0000000000000000   25.4780000000000015
 Ag  Te  P  
   6   6   3
Direct
  0.9999999999999997  0.9999999999999998  0.6129500000000000
  0.0000000000000000  0.0000000000000000  0.3870499999999999
  0.6666700000000000  0.3333300000000000  0.9462900000000000
  0.6666700000000000  0.3333300000000000  0.7203800000000000
  0.3333300000000000  0.6666700000000000  0.2796200000000000
  0.3333300000000000  0.6666700000000000  0.0537100000000000
  0.9999999999999997  0.9999999999999998  0.7881299999999999
  0.0000000000000000  0.0000000000000000  0.2118700000000000
  0.6666700000000000  0.3333300000000000  0.1214600000000000
  0.6666700000000000  0.3333300000000000  0.5452100000000000
  0.3333300000000000  0.6666700000000000  0.4547900000000000
  0.3333300000000000  0.6666700000000000  0.8785400000000000
  0.0000000000000000  0.0000000000000000  0.0000000000000000
  0.6666700000000000  0.3333300000000000  0.3333300000000000
  0.3333300000000000  0.6666700000000000  0.6666699999999999
