Os Se Sn 
 1.0000000000000000
     3.2690000000000001    0.0000000000000000    0.0000000000000000
    -1.6344999999999994    2.8310370449713305    0.0000000000000000
     0.0000000000000000    0.0000000000000000    8.5470000000000006
 Os  Se  Sn 
   2   2   1
Direct
  0.6665100000000000  0.3332500000000000  0.7798000000000000
  0.3334899999999999  0.6667500000000000  0.2202000000000000
  0.6668400000000000  0.3334200000000000  0.3558900000000000
  0.3331600000000000  0.6665800000000001  0.6441100000000000
  0.0000000000000000  0.0000000000000000  0.0000000000000000
