Ru  S Sn 
 1.0000000000000000
     3.2709999999999999    0.0000000000000000    0.0000000000000000
    -1.6354999999999993    2.8327690957788989    0.0000000000000000
     0.0000000000000000    0.0000000000000000   25.4780000000000015
 Ru  S   Sn 
   6   6   3
Direct
  0.9999900000000000  0.0000100000000000  0.5852900000000000
  0.0000100000000000  0.9999899999999999  0.4147100000000000
  0.6666700000000000  0.3333300000000000  0.9186299999999998
  0.6666700000000000  0.3333300000000000  0.7480400000000000
  0.3333300000000000  0.6666700000000000  0.2519600000000000
  0.3333300000000000  0.6666700000000000  0.0813700000000000
  0.0000100000000000  0.9999899999999999  0.7867800000000000
  0.9999900000000000  0.0000100000000000  0.2132200000000000
  0.6666600000000000  0.3333400000000000  0.1201200000000000
  0.6666600000000000  0.3333400000000000  0.5465500000000000
  0.3333400000000000  0.6666600000000000  0.4534500000000000
  0.3333400000000000  0.6666600000000000  0.8798800000000000
  0.0000000000000000  0.0000000000000000  0.0000000000000000
  0.6666600000000000  0.3333400000000000  0.3333300000000000
  0.3333400000000000  0.6666600000000000  0.6666699999999999
