Ti Rh Te  C 
 1.0000000000000000
     3.3121000000000000    0.0000000000000000    0.0000000000000000
    -1.6560499999999991    2.8683627398744393    0.0000000000000000
     0.0000000000000000    0.0000000000000000    9.0113000000000003
 Ti  Rh  Te  C  
   2   2   2   1
Direct
  0.6666400000000001  0.3333200000000000  0.5792600000000000
  0.3333600000000001  0.6666800000000001  0.4207400000000000
  0.6666500000000000  0.3333300000000000  0.9083800000000001
  0.3333500000000000  0.6666700000000000  0.0916200000000000
  0.6666900000000002  0.3333400000000000  0.2630500000000000
  0.3333100000000000  0.6666600000000000  0.7369500000000000
  0.0000000000000000  0.0000000000000000  0.0000000000000000
