Ni Te Sb 
 1.0000000000000000
     3.2690000000000001    0.0000000000000000    0.0000000000000000
    -1.6344999999999994    2.8310370449713305    0.0000000000000000
     0.0000000000000000    0.0000000000000000    8.5470000000000006
 Ni  Te  Sb 
   2   2   1
Direct
  0.6887299999999997  0.3443600000000000  0.8283600000000000
  0.3112699999999999  0.6556400000000000  0.1716400000000000
  0.5663400000000000  0.2831700000000000  0.3574100000000000
  0.4336600000000000  0.7168300000000000  0.6425900000000000
  0.0000000000000000  0.0000000000000000  0.0000000000000000
