Zn Se Ga 
 1.0000000000000000
     3.2690000000000001    0.0000000000000000    0.0000000000000000
    -1.6344999999999994    2.8310370449713305    0.0000000000000000
     0.0000000000000000    0.0000000000000000    8.5470000000000006
 Zn  Se  Ga 
   2   2   1
Direct
  0.7407299999999998  0.3703600000000000  0.7476500000000000
  0.2592699999999999  0.6296400000000000  0.2523500000000000
  0.6187700000000000  0.3093800000000000  0.4473099999999999
  0.3812299999999999  0.6906200000000000  0.5526900000000000
  0.0000000000000000  0.0000000000000000  0.0000000000000000
