Cu Se  P 
 1.0000000000000000
     3.2709999999999999    0.0000000000000000    0.0000000000000000
    -1.6354999999999993    2.8327690957788989    0.0000000000000000
     0.0000000000000000    0.0000000000000000   25.4780000000000015
 Cu  Se  P  
   6   6   3
Direct
  0.0000000000000000  0.0000000000000000  0.6094200000000000
  0.9999999999999997  0.9999999999999998  0.3905800000000000
  0.6666700000000000  0.3333300000000000  0.9427600000000000
  0.6666600000000000  0.3333400000000000  0.7239099999999999
  0.3333400000000000  0.6666600000000000  0.2760900000000000
  0.3333300000000000  0.6666700000000000  0.0572400000000000
  0.0000199999999999  0.9999799999999998  0.7905000000000000
  0.9999800000000000  0.0000200000000000  0.2095000000000000
  0.6666700000000000  0.3333300000000000  0.1238400000000000
  0.6666900000000000  0.3333099999999999  0.5428300000000000
  0.3333100000000000  0.6666900000000000  0.4571700000000000
  0.3333300000000000  0.6666700000000000  0.8761600000000000
  0.0000000000000000  0.0000000000000000  0.0000000000000000
  0.6666900000000000  0.3333099999999999  0.3333300000000000
  0.3333100000000000  0.6666900000000000  0.6666699999999999
