Hf  S Ge 
 1.0000000000000000
     3.2690000000000001    0.0000000000000000    0.0000000000000000
    -1.6344999999999994    2.8310370449713305    0.0000000000000000
     0.0000000000000000    0.0000000000000000    8.5470000000000006
 Hf  S   Ge 
   2   2   1
Direct
  0.5181500000000000  0.2590700000000000  0.7355800000000000
  0.4818499999999999  0.7409300000000000  0.2644200000000000
  0.8008399999999998  0.4004200000000001  0.3510000000000000
  0.1991600000000000  0.5995800000000000  0.6489999999999999
  0.0000000000000000  0.0000000000000000  0.0000000000000000
