Ru Ge  S 
 1.0000000000000000
     3.3435999999999999    0.0000000000000000    0.0000000000000000
    -1.6717999999999993    2.8956425400936490    0.0000000000000000
     0.0000000000000000    0.0000000000000000   11.5808999999999997
 Ru  Ge  S  
   4   2   2
Direct
  0.3331700000000000  0.6668300000000000  0.3488500000000000
  0.6668299999999999  0.3331700000000000  0.6511500000000000
  0.6665900000000000  0.3334100000000000  0.8488699999999999
  0.3334100000000000  0.6665900000000000  0.1511300000000000
  0.0000000000000000  0.0000000000000000  0.0000000000000000
  0.0000000000000000  0.0000000000000000  0.5000000000000000
  0.0000699999999999  0.9999299999999998  0.7500099999999998
  0.9999299999999998  0.0000700000000000  0.2499900000000000
