Ti Sc  N  S 
 1.0000000000000000
     3.3029999999999999    0.0000000000000000    0.0000000000000000
    -1.6514999999999991    2.8604819087000011    0.0000000000000000
     0.0000000000000000    0.0000000000000000   25.8299999999999983
 Ti  Sc  N   S  
   3   6   3   6
Direct
  0.0000000000000000  0.0000000000000000  0.0000000000000000
  0.7715700000000000  0.2284300000000000  0.3121900000000000
  0.2284300000000000  0.7715700000000001  0.6878100000000000
  0.8471700000000000  0.1528300000000000  0.8614300000000000
  0.1528300000000000  0.8471700000000000  0.1385700000000000
  0.8194100000000000  0.1805900000000000  0.1921900000000000
  0.6669099999999998  0.3330900000000000  0.4728300000000000
  0.3330899999999999  0.6669100000000000  0.5271700000000000
  0.1805900000000001  0.8194100000000001  0.8078100000000000
  0.0000000000000000  0.0000000000000000  0.5000000000000000
  0.5181500000000000  0.4818500000000000  0.8337800000000000
  0.4818500000000000  0.5181500000000000  0.1662200000000000
  0.9067199999999999  0.0932800000000000  0.7116500000000000
  0.0932800000000000  0.9067200000000000  0.2883500000000000
  0.6672900000000000  0.3327100000000000  0.0467600000000000
  0.7236199999999998  0.2763800000000000  0.6258500000000000
  0.2763799999999999  0.7236200000000000  0.3741500000000000
  0.3327100000000000  0.6672900000000000  0.9532400000000000
