Ni Sc  C  S
 1.0000000000000000
     3.3029999999999999    0.0000000000000000    0.0000000000000000
    -1.6514999999999991    2.8604819087000011    0.0000000000000000
     0.0000000000000000    0.0000000000000000   25.8299999999999983
 Ni  Sc  C   S
   3   6   3   6
Direct
  0.0000000000000000  0.0000000000000000  0.0000000000000000
  0.6666700000000000  0.3333300000000000  0.3333300000000001
  0.3333300000000000  0.6666700000000000  0.6666700000000001
  0.0000000000000000  0.0000000000000000  0.8811000000000001
  0.0000000000000000  0.0000000000000000  0.1189000000000000
  0.6666700000000000  0.3333300000000000  0.2144400000000000
  0.6666700000000000  0.3333300000000000  0.4522300000000001
  0.3333300000000000  0.6666700000000000  0.5477700000000000
  0.3333300000000000  0.6666700000000000  0.7855600000000000
  0.0000000000000000  0.0000000000000000  0.5000000000000000
  0.6666700000000000  0.3333300000000000  0.8333300000000000
  0.3333300000000000  0.6666700000000000  0.1666700000000000
  0.0000000000000000  0.0000000000000000  0.7168900000000000
  0.0000000000000000  0.0000000000000000  0.2831100000000000
  0.6666700000000000  0.3333300000000000  0.0502300000000000
  0.6666600000000000  0.3333400000000000  0.6164400000000000
  0.3333400000000000  0.6666600000000000  0.3835600000000001
  0.3333300000000000  0.6666700000000000  0.9497700000000000
