Sc Au  C Te
 1.0000000000000000
     3.3029999999999999    0.0000000000000000    0.0000000000000000
    -1.6514999999999993    2.8604819087000011    0.0000000000000000
     0.0000000000000000    0.0000000000000000   25.8299999999999983
 Sc  Au  C   Te
   3   6   3   6
Direct
  0.0000000000000000  0.0000000000000000  0.0000000000000000
  0.8008599999999999  0.1991400000000000  0.3194600000000000
  0.1991400000000000  0.8008600000000000  0.6805400000000000
  0.9951900000000000  0.0048100000000000  0.8753600000000000
  0.0048100000000000  0.9951900000000000  0.1246400000000000
  0.7687499999999999  0.2312500000000000  0.2190200000000000
  0.6592300000000000  0.3407700000000000  0.4552800000000001
  0.3407699999999999  0.6592300000000000  0.5447200000000000
  0.2312500000000000  0.7687500000000000  0.7809800000000000
  0.0000000000000000  0.0000000000000000  0.5000000000000000
  0.6872000000000000  0.3128000000000000  0.8318700000000000
  0.3128000000000000  0.6872000000000000  0.1681300000000000
  0.8680700000000000  0.1319300000000000  0.7116100000000000
  0.1319299999999999  0.8680700000000000  0.2883900000000000
  0.6746799999999997  0.3253200000000000  0.0580400000000000
  0.6774499999999998  0.3225500000000000  0.6124400000000000
  0.3225500000000000  0.6774500000000000  0.3875600000000001
  0.3253200000000000  0.6746799999999999  0.9419600000000001
