Ca Rh  N Se 
 1.0000000000000000
     3.3029999999999999    0.0000000000000000    0.0000000000000000
    -1.6514999999999993    2.8604819087000011    0.0000000000000000
     0.0000000000000000    0.0000000000000000   25.8299999999999983
 Ca  Rh  N   Se 
   3   6   3   6
Direct
  0.0000000000000000  0.0000000000000000  0.0000000000000000
  0.6666600000000000  0.3333400000000000  0.3600600000000000
  0.3333400000000000  0.6666600000000000  0.6399400000000001
  0.0000000000000000  0.0000000000000000  0.8780500000000000
  0.0000000000000000  0.0000000000000000  0.1219500000000000
  0.6666600000000000  0.3333400000000000  0.2074200000000000
  0.6666600000000000  0.3333400000000000  0.4585700000000000
  0.3333400000000000  0.6666600000000000  0.5414300000000000
  0.3333400000000000  0.6666600000000000  0.7925800000000000
  0.0000000000000000  0.0000000000000000  0.5000000000000000
  0.6666700000000000  0.3333300000000000  0.8400600000000000
  0.3333300000000000  0.6666700000000000  0.1599400000000000
  0.0000000000000000  0.0000000000000000  0.7458600000000002
  0.0000000000000000  0.0000000000000000  0.2541400000000000
  0.6666700000000000  0.3333300000000000  0.0755300000000000
  0.6666700000000000  0.3333300000000000  0.5975500000000000
  0.3333300000000000  0.6666700000000000  0.4024500000000000
  0.3333300000000000  0.6666700000000000  0.9244700000000001
