Mo Bi Se 
 1.0000000000000000
     3.3435999999999999    0.0000000000000000    0.0000000000000000
    -1.6717999999999993    2.8956425400936490    0.0000000000000000
     0.0000000000000000    0.0000000000000000   11.5808999999999997
 Mo  Bi  Se 
   4   2   2
Direct
  0.2901400000000000  0.7098599999999999  0.3439000000000000
  0.7098599999999999  0.2901400000000000  0.6561000000000000
  0.7098500000000000  0.2901500000000000  0.8439200000000000
  0.2901500000000000  0.7098500000000000  0.1560800000000000
  0.0000000000000000  0.0000000000000000  0.0000000000000000
  0.0000000000000000  0.0000000000000000  0.5000000000000000
  0.3721499999999999  0.6278500000000000  0.7500099999999998
  0.6278499999999998  0.3721499999999999  0.2499900000000000
