Zn Mo  N  S 
 1.0000000000000000
     3.3029999999999999    0.0000000000000000    0.0000000000000000
    -1.6514999999999991    2.8604819087000011    0.0000000000000000
     0.0000000000000000    0.0000000000000000   25.8299999999999983
 Zn  Mo  N   S  
   3   6   3   6
Direct
  0.0000000000000000  0.0000000000000000  0.0000000000000000
  0.5016500000000000  0.4983500000000000  0.3352100000000000
  0.4983500000000000  0.5016500000000000  0.6647900000000001
  0.0424800000000000  0.9575200000000000  0.8751500000000000
  0.9575199999999999  0.0424800000000000  0.1248500000000000
  0.7586600000000000  0.2413400000000000  0.2055800000000000
  0.7050300000000000  0.2949700000000000  0.4674100000000000
  0.2949700000000000  0.7050300000000000  0.5325900000000000
  0.2413400000000000  0.7586600000000000  0.7944200000000000
  0.0000000000000000  0.0000000000000000  0.5000000000000000
  0.6672800000000000  0.3327200000000000  0.8293100000000000
  0.3327200000000000  0.6672800000000000  0.1706900000000000
  0.9344100000000000  0.0655900000000000  0.7608400000000001
  0.0655900000000000  0.9344100000000000  0.2391600000000000
  0.6337800000000000  0.3662200000000000  0.0949200000000000
  0.6500999999999999  0.3499000000000000  0.5731000000000001
  0.3499000000000000  0.6501000000000000  0.4269000000000000
  0.3662200000000000  0.6337800000000000  0.9050800000000001
