Cr Zn  N Se 
 1.0000000000000000
     3.3029999999999999    0.0000000000000000    0.0000000000000000
    -1.6514999999999993    2.8604819087000011    0.0000000000000000
     0.0000000000000000    0.0000000000000000   25.8299999999999983
 Cr  Zn  N   Se 
   3   6   3   6
Direct
  0.0000000000000000  0.0000000000000000  0.0000000000000000
  0.8322199999999998  0.1677800000000000  0.3368900000000000
  0.1677800000000000  0.8322200000000000  0.6631100000000001
  0.8248200000000000  0.1751800000000000  0.8809399999999999
  0.1751800000000000  0.8248200000000000  0.1190600000000000
  0.8407399999999998  0.1592600000000000  0.1894400000000000
  0.5206000000000000  0.4794000000000000  0.4560300000000000
  0.4794000000000000  0.5206000000000000  0.5439700000000000
  0.1592600000000002  0.8407400000000002  0.8105600000000001
  0.0000000000000000  0.0000000000000000  0.5000000000000000
  0.5012200000000000  0.4987800000000000  0.7165100000000000
  0.4987799999999999  0.5012200000000000  0.2834900000000000
  0.8345999999999999  0.1654000000000000  0.7219800000000000
  0.1654000000000000  0.8346000000000000  0.2780200000000000
  0.6679900000000000  0.3320100000000000  0.0420400000000000
  0.8346900000000000  0.1653100000000000  0.6302400000000001
  0.1653099999999999  0.8346900000000000  0.3697600000000000
  0.3320100000000000  0.6679900000000000  0.9579600000000001
