Fe  V Se  C 
 1.0000000000000000
     3.3121000000000000    0.0000000000000000    0.0000000000000000
    -1.6560499999999991    2.8683627398744393    0.0000000000000000
     0.0000000000000000    0.0000000000000000    9.0113000000000003
 Fe  V   Se  C  
   2   2   2   1
Direct
  0.6666600000000003  0.3333300000000000  0.5808600000000000
  0.3333400000000000  0.6666700000000000  0.4191400000000000
  0.6666600000000003  0.3333300000000000  0.8996100000000001
  0.3333400000000000  0.6666700000000000  0.1003900000000000
  0.6666500000000000  0.3333300000000000  0.2912300000000000
  0.3333500000000000  0.6666700000000000  0.7087700000000000
  0.0000000000000000  0.0000000000000000  0.0000000000000000
