Os Te As 
 1.0000000000000000
     3.2709999999999999    0.0000000000000000    0.0000000000000000
    -1.6354999999999993    2.8327690957788989    0.0000000000000000
     0.0000000000000000    0.0000000000000000   25.4780000000000015
 Os  Te  As 
   6   6   3
Direct
  0.0000000000000000  0.0000000000000000  0.6202700000000000
  0.9999999999999997  0.9999999999999998  0.3797299999999999
  0.6666700000000000  0.3333300000000000  0.9536100000000000
  0.6666700000000000  0.3333300000000000  0.7130599999999998
  0.3333300000000000  0.6666700000000000  0.2869400000000000
  0.3333300000000000  0.6666700000000000  0.0463900000000000
  0.9999999999999997  0.9999999999999998  0.7756400000000000
  0.0000000000000000  0.0000000000000000  0.2243600000000000
  0.6666700000000000  0.3333300000000000  0.1089800000000000
  0.6666700000000000  0.3333300000000000  0.5576900000000000
  0.3333300000000000  0.6666700000000000  0.4423100000000000
  0.3333300000000000  0.6666700000000000  0.8910200000000000
  0.0000000000000000  0.0000000000000000  0.0000000000000000
  0.6666700000000000  0.3333300000000000  0.3333300000000000
  0.3333300000000000  0.6666700000000000  0.6666699999999999
