Cr Se Ge 
 1.0000000000000000
     3.2690000000000001    0.0000000000000000    0.0000000000000000
    -1.6344999999999994    2.8310370449713305    0.0000000000000000
     0.0000000000000000    0.0000000000000000    8.5470000000000006
 Cr  Se  Ge 
   2   2   1
Direct
  0.6778300000000000  0.3389100000000000  0.8917299999999998
  0.3221700000000000  0.6610900000000000  0.1082700000000000
  0.2682900000000000  0.1341500000000000  0.3119500000000000
  0.7317100000000000  0.8658500000000001  0.6880500000000001
  0.0000000000000000  0.0000000000000000  0.0000000000000000
