Ru  S Pb 
 1.0000000000000000
     3.2709999999999999    0.0000000000000000    0.0000000000000000
    -1.6354999999999993    2.8327690957788989    0.0000000000000000
     0.0000000000000000    0.0000000000000000   25.4780000000000015
 Ru  S   Pb 
   6   6   3
Direct
  0.0000000000000000  0.0000000000000000  0.5821300000000000
  0.9999999999999997  0.9999999999999998  0.4178700000000000
  0.6666700000000000  0.3333300000000000  0.9154600000000001
  0.6666700000000000  0.3333300000000000  0.7512100000000000
  0.3333300000000000  0.6666700000000000  0.2487900000000000
  0.3333300000000000  0.6666700000000000  0.0845400000000000
  0.0000000000000000  0.0000000000000000  0.7886400000000000
  0.9999999999999997  0.9999999999999998  0.2113599999999999
  0.6666700000000000  0.3333300000000000  0.1219800000000000
  0.6666700000000000  0.3333300000000000  0.5446900000000000
  0.3333300000000000  0.6666700000000000  0.4553100000000000
  0.3333300000000000  0.6666700000000000  0.8780199999999999
  0.0000000000000000  0.0000000000000000  0.0000000000000000
  0.6666600000000000  0.3333400000000000  0.3333300000000000
  0.3333400000000000  0.6666600000000000  0.6666699999999999
