Cu Zr  N  S 
 1.0000000000000000
     3.3029999999999999    0.0000000000000000    0.0000000000000000
    -1.6514999999999991    2.8604819087000011    0.0000000000000000
     0.0000000000000000    0.0000000000000000   25.8299999999999983
 Cu  Zr  N   S  
   3   6   3   6
Direct
  0.0000000000000000  0.0000000000000000  0.0000000000000000
  0.3783200000000000  0.6216800000000000  0.3328500000000000
  0.6216800000000000  0.3783200000000000  0.6671500000000000
  0.0846300000000000  0.9153700000000000  0.8606800000000000
  0.9153699999999998  0.0846300000000000  0.1393200000000000
  0.6067100000000000  0.3932900000000000  0.2071800000000000
  0.6730000000000000  0.3270000000000000  0.4689000000000000
  0.3270000000000000  0.6730000000000000  0.5311000000000000
  0.3932900000000000  0.6067100000000000  0.7928200000000000
  0.0000000000000000  0.0000000000000000  0.5000000000000000
  0.7651700000000000  0.2348300000000000  0.8431900000000001
  0.2348300000000001  0.7651700000000000  0.1568100000000000
  0.0785900000000000  0.9214100000000000  0.7570300000000001
  0.9214100000000000  0.0785900000000000  0.2429700000000000
  0.4401900000000000  0.5598100000000000  0.0758200000000000
  0.7272199999999998  0.2727800000000000  0.5857900000000000
  0.2727799999999999  0.7272200000000000  0.4142100000000001
  0.5598100000000000  0.4401900000000000  0.9241800000000000
