Ta Se In 
 1.0000000000000000
     3.2709999999999999    0.0000000000000000    0.0000000000000000
    -1.6354999999999993    2.8327690957788989    0.0000000000000000
     0.0000000000000000    0.0000000000000000   25.4780000000000015
 Ta  Se  In 
   6   6   3
Direct
  0.0000000000000000  0.0000000000000000  0.5760999999999999
  0.9999999999999997  0.9999999999999998  0.4239000000000000
  0.6666700000000000  0.3333300000000000  0.9094400000000000
  0.6666700000000000  0.3333300000000000  0.7572300000000000
  0.3333300000000000  0.6666700000000000  0.2427700000000000
  0.3333300000000000  0.6666700000000000  0.0905600000000000
  0.9999999999999997  0.9999999999999998  0.7895700000000000
  0.0000000000000000  0.0000000000000000  0.2104300000000000
  0.6666700000000000  0.3333300000000000  0.1229000000000000
  0.6666700000000000  0.3333300000000000  0.5437600000000000
  0.3333300000000000  0.6666700000000000  0.4562400000000000
  0.3333300000000000  0.6666700000000000  0.8771000000000000
  0.0000000000000000  0.0000000000000000  0.0000000000000000
  0.6666600000000000  0.3333400000000000  0.3333300000000000
  0.3333400000000000  0.6666600000000000  0.6666699999999999
