Rh Se In 
 1.0000000000000000
     3.2690000000000001    0.0000000000000000    0.0000000000000000
    -1.6344999999999994    2.8310370449713305    0.0000000000000000
     0.0000000000000000    0.0000000000000000    8.5470000000000006
 Rh  Se  In 
   2   2   1
Direct
  0.6665400000000000  0.3332700000000000  0.7634100000000000
  0.3334599999999999  0.6667300000000002  0.2365900000000000
  0.6666999999999997  0.3333500000000000  0.3784000000000000
  0.3333000000000000  0.6666500000000000  0.6216000000000000
  0.0000000000000000  0.0000000000000000  0.0000000000000000
