 V Zn  C  S
 1.0000000000000000
     3.3029999999999999    0.0000000000000000    0.0000000000000000
    -1.6514999999999991    2.8604819087000011    0.0000000000000000
     0.0000000000000000    0.0000000000000000   25.8299999999999983
 V   Zn  C   S
   3   6   3   6
Direct
  0.0000000000000000  0.0000000000000000  0.0000000000000000
  0.6666700000000000  0.3333300000000000  0.3333300000000001
  0.3333300000000000  0.6666700000000000  0.6666700000000001
  0.0000000000000000  0.0000000000000000  0.8695500000000000
  0.0000000000000000  0.0000000000000000  0.1304500000000000
  0.6666700000000000  0.3333300000000000  0.2028800000000000
  0.6666700000000000  0.3333300000000000  0.4637800000000000
  0.3333300000000000  0.6666700000000000  0.5362200000000000
  0.3333300000000000  0.6666700000000000  0.7971200000000001
  0.0000000000000000  0.0000000000000000  0.5000000000000000
  0.6666700000000000  0.3333300000000000  0.8333300000000000
  0.3333300000000000  0.6666700000000000  0.1666700000000000
  0.0000000000000000  0.0000000000000000  0.7214300000000001
  0.0000000000000000  0.0000000000000000  0.2785700000000000
  0.6666700000000000  0.3333300000000000  0.0547700000000000
  0.6666700000000000  0.3333300000000000  0.6119000000000000
  0.3333300000000000  0.6666700000000000  0.3881000000000001
  0.3333300000000000  0.6666700000000000  0.9452300000000000
