Mn Mo  C  S
 1.0000000000000000
     3.3029999999999999    0.0000000000000000    0.0000000000000000
    -1.6514999999999991    2.8604819087000011    0.0000000000000000
     0.0000000000000000    0.0000000000000000   25.8299999999999983
 Mn  Mo  C   S
   3   6   3   6
Direct
  0.0000000000000000  0.0000000000000000  0.0000000000000000
  0.6666700000000000  0.3333300000000000  0.3333200000000000
  0.3333300000000000  0.6666700000000000  0.6666800000000002
  0.0000000000000000  0.0000000000000000  0.8733800000000000
  0.0000000000000000  0.0000000000000000  0.1266200000000000
  0.6666600000000000  0.3333400000000000  0.2067100000000000
  0.6666700000000000  0.3333300000000000  0.4599600000000000
  0.3333300000000000  0.6666700000000000  0.5400400000000000
  0.3333400000000000  0.6666600000000000  0.7932900000000001
  0.0000000000000000  0.0000000000000000  0.5000000000000000
  0.6666700000000000  0.3333300000000000  0.8333300000000000
  0.3333300000000000  0.6666700000000000  0.1666700000000000
  0.0000100000000001  0.9999900000000002  0.7201200000000000
  0.9999899999999998  0.0000100000000000  0.2798800000000000
  0.6666800000000001  0.3333200000000000  0.0534600000000000
  0.6666600000000000  0.3333400000000000  0.6132100000000000
  0.3333400000000000  0.6666600000000000  0.3867900000000000
  0.3333200000000000  0.6666800000000001  0.9465400000000003
