Os Te  B 
 1.0000000000000000
     3.2709999999999999    0.0000000000000000    0.0000000000000000
    -1.6354999999999993    2.8327690957788989    0.0000000000000000
     0.0000000000000000    0.0000000000000000   25.4780000000000015
 Os  Te  B  
   6   6   3
Direct
  0.0207799999999999  0.9792199999999998  0.6291099999999998
  0.9792200000000000  0.0207800000000000  0.3708899999999999
  0.7155899999999999  0.2844100000000000  0.9595399999999997
  0.7752200000000000  0.2247800000000000  0.7125000000000000
  0.2247800000000001  0.7752200000000000  0.2875000000000000
  0.2844099999999999  0.7155899999999999  0.0404600000000000
  0.1001999999999999  0.8997999999999999  0.7681800000000000
  0.8998000000000000  0.1002000000000000  0.2318200000000000
  0.6564099999999999  0.3435900000000000  0.1018700000000000
  0.7507000000000000  0.2493000000000000  0.5568700000000000
  0.2493000000000000  0.7507000000000000  0.4431300000000000
  0.3435900000000000  0.6564100000000000  0.8981300000000000
  0.0000000000000000  0.0000000000000000  0.0000000000000000
  0.6378400000000000  0.3621599999999999  0.3499900000000000
  0.3621599999999999  0.6378399999999999  0.6500099999999998
