Li Ag  C  S
 1.0000000000000000
     3.3029999999999999    0.0000000000000000    0.0000000000000000
    -1.6514999999999991    2.8604819087000011    0.0000000000000000
     0.0000000000000000    0.0000000000000000   25.8299999999999983
 Li  Ag  C   S
   3   6   3   6
Direct
  0.0000000000000000  0.0000000000000000  0.0000000000000000
  0.6666700000000000  0.3333300000000000  0.3333300000000001
  0.3333300000000000  0.6666700000000000  0.6666700000000001
  0.0000000000000000  0.0000000000000000  0.8813100000000000
  0.0000000000000000  0.0000000000000000  0.1186900000000000
  0.6666700000000000  0.3333300000000000  0.2146500000000000
  0.6666700000000000  0.3333300000000000  0.4520200000000001
  0.3333300000000000  0.6666700000000000  0.5479800000000000
  0.3333300000000000  0.6666700000000000  0.7853500000000000
  0.0000000000000000  0.0000000000000000  0.5000000000000000
  0.6666700000000000  0.3333300000000000  0.8333400000000000
  0.3333300000000000  0.6666700000000000  0.1666600000000000
  0.0000000000000000  0.0000000000000000  0.7233000000000002
  0.0000000000000000  0.0000000000000000  0.2767000000000000
  0.6666700000000000  0.3333300000000000  0.0566300000000000
  0.6666700000000000  0.3333300000000000  0.6100400000000000
  0.3333300000000000  0.6666700000000000  0.3899600000000000
  0.3333300000000000  0.6666700000000000  0.9433700000000000
