Zn Ag  C Te
 1.0000000000000000
     3.3029999999999999    0.0000000000000000    0.0000000000000000
    -1.6514999999999993    2.8604819087000011    0.0000000000000000
     0.0000000000000000    0.0000000000000000   25.8299999999999983
 Zn  Ag  C   Te
   3   6   3   6
Direct
  0.0000000000000000  0.0000000000000000  0.0000000000000000
  0.6666700000000000  0.3333300000000000  0.3333300000000001
  0.3333300000000000  0.6666700000000000  0.6666700000000001
  0.0000000000000000  0.0000000000000000  0.8750100000000001
  0.0000000000000000  0.0000000000000000  0.1249900000000000
  0.6666700000000000  0.3333300000000000  0.2083400000000000
  0.6666700000000000  0.3333300000000000  0.4583300000000001
  0.3333300000000000  0.6666700000000000  0.5416700000000000
  0.3333300000000000  0.6666700000000000  0.7916600000000000
  0.0000000000000000  0.0000000000000000  0.5000000000000000
  0.6666700000000000  0.3333300000000000  0.8333300000000000
  0.3333300000000000  0.6666700000000000  0.1666700000000000
  0.0000000000000000  0.0000000000000000  0.7273600000000000
  0.0000000000000000  0.0000000000000000  0.2726400000000000
  0.6666700000000000  0.3333300000000000  0.0606900000000000
  0.6666700000000000  0.3333300000000000  0.6059700000000000
  0.3333300000000000  0.6666700000000000  0.3940300000000000
  0.3333300000000000  0.6666700000000000  0.9393100000000000
