Pd  S Al 
 1.0000000000000000
     3.2709999999999999    0.0000000000000000    0.0000000000000000
    -1.6354999999999993    2.8327690957788989    0.0000000000000000
     0.0000000000000000    0.0000000000000000   25.4780000000000015
 Pd  S   Al 
   6   6   3
Direct
  0.0000000000000000  0.0000000000000000  0.6164200000000000
  0.9999999999999997  0.9999999999999998  0.3835799999999999
  0.6666700000000000  0.3333300000000000  0.9497500000000000
  0.6666700000000000  0.3333300000000000  0.7169100000000000
  0.3333300000000000  0.6666700000000000  0.2830900000000000
  0.3333300000000000  0.6666700000000000  0.0502500000000000
  0.9999999999999997  0.9999999999999998  0.7907699999999999
  0.0000000000000000  0.0000000000000000  0.2092300000000000
  0.6666700000000000  0.3333300000000000  0.1241100000000000
  0.6666700000000000  0.3333300000000000  0.5425600000000000
  0.3333300000000000  0.6666700000000000  0.4574400000000000
  0.3333300000000000  0.6666700000000000  0.8758899999999997
  0.0000000000000000  0.0000000000000000  0.0000000000000000
  0.6666700000000000  0.3333300000000000  0.3333300000000000
  0.3333300000000000  0.6666700000000000  0.6666699999999999
