Ag  S Ga 
 1.0000000000000000
     3.2690000000000001    0.0000000000000000    0.0000000000000000
    -1.6344999999999994    2.8310370449713305    0.0000000000000000
     0.0000000000000000    0.0000000000000000    8.5470000000000006
 Ag  S   Ga 
   2   2   1
Direct
  0.6105500000000000  0.3052800000000001  0.7722000000000000
  0.3894500000000001  0.6947200000000001  0.2278000000000000
  0.6340599999999997  0.3170300000000000  0.4604900000000000
  0.3659399999999998  0.6829700000000000  0.5395100000000000
  0.0000000000000000  0.0000000000000000  0.0000000000000000
