Au Se Bi 
 1.0000000000000000
     3.2709999999999999    0.0000000000000000    0.0000000000000000
    -1.6354999999999993    2.8327690957788989    0.0000000000000000
     0.0000000000000000    0.0000000000000000   25.4780000000000015
 Au  Se  Bi 
   6   6   3
Direct
  0.9873800000000000  0.0126200000000000  0.5868000000000000
  0.0126200000000000  0.9873799999999999  0.4132000000000000
  0.6468999999999999  0.3531000000000000  0.9174900000000000
  0.6652900000000000  0.3347100000000000  0.7459900000000000
  0.3347100000000000  0.6652899999999999  0.2540100000000000
  0.3531000000000000  0.6468999999999999  0.0825100000000000
  0.0150300000000001  0.9849700000000000  0.8126399999999999
  0.9849699999999999  0.0150300000000000  0.1873600000000000
  0.6842800000000000  0.3157200000000000  0.1517100000000000
  0.6848400000000000  0.3151599999999999  0.5179800000000000
  0.3151599999999999  0.6848399999999999  0.4820200000000000
  0.3157200000000000  0.6842800000000000  0.8482900000000000
  0.0000000000000000  0.0000000000000000  0.0000000000000000
  0.7206599999999999  0.2793400000000000  0.3328700000000000
  0.2793399999999998  0.7206599999999997  0.6671300000000000
