Mg Rh  C Te
 1.0000000000000000
     3.3029999999999999    0.0000000000000000    0.0000000000000000
    -1.6514999999999993    2.8604819087000011    0.0000000000000000
     0.0000000000000000    0.0000000000000000   25.8299999999999983
 Mg  Rh  C   Te
   3   6   3   6
Direct
  0.0000000000000000  0.0000000000000000  0.0000000000000000
  0.6666600000000000  0.3333400000000000  0.3333300000000001
  0.3333400000000000  0.6666600000000000  0.6666700000000001
  0.9999600000000000  0.0000400000000000  0.8723200000000000
  0.0000400000000001  0.9999600000000000  0.1276800000000000
  0.6667100000000000  0.3332900000000000  0.2056500000000000
  0.6666700000000000  0.3333300000000000  0.4610100000000000
  0.3333300000000000  0.6666700000000000  0.5389900000000000
  0.3332900000000000  0.6667100000000000  0.7943500000000000
  0.0000000000000000  0.0000000000000000  0.5000000000000000
  0.6666999999999998  0.3333000000000000  0.8333300000000000
  0.3332999999999999  0.6667000000000000  0.1666700000000000
  0.0000200000000001  0.9999800000000001  0.7390000000000000
  0.9999800000000000  0.0000200000000000  0.2610000000000000
  0.6666499999999999  0.3333500000000000  0.0723300000000000
  0.6666700000000000  0.3333300000000000  0.5943400000000000
  0.3333300000000000  0.6666700000000000  0.4056600000000000
  0.3333499999999999  0.6666500000000000  0.9276700000000000
