Cu Ir  C Se
 1.0000000000000000
     3.3029999999999999    0.0000000000000000    0.0000000000000000
    -1.6514999999999993    2.8604819087000011    0.0000000000000000
     0.0000000000000000    0.0000000000000000   25.8299999999999983
 Cu  Ir  C   Se
   3   6   3   6
Direct
  0.0000000000000000  0.0000000000000000  0.0000000000000000
  0.6666700000000000  0.3333300000000000  0.3333300000000001
  0.3333300000000000  0.6666700000000000  0.6666700000000001
  0.0000000000000000  0.0000000000000000  0.8750700000000000
  0.0000000000000000  0.0000000000000000  0.1249300000000000
  0.6666700000000000  0.3333300000000000  0.2084000000000000
  0.6666700000000000  0.3333300000000000  0.4582700000000000
  0.3333300000000000  0.6666700000000000  0.5417300000000000
  0.3333300000000000  0.6666700000000000  0.7916000000000001
  0.0000000000000000  0.0000000000000000  0.5000000000000000
  0.6666700000000000  0.3333300000000000  0.8333300000000000
  0.3333300000000000  0.6666700000000000  0.1666700000000000
  0.0000000000000000  0.0000000000000000  0.7409700000000000
  0.0000000000000000  0.0000000000000000  0.2590300000000000
  0.6666700000000000  0.3333300000000000  0.0743100000000000
  0.6666700000000000  0.3333300000000000  0.5923600000000000
  0.3333300000000000  0.6666700000000000  0.4076400000000000
  0.3333300000000000  0.6666700000000000  0.9256900000000000
