Zn Ni  N  S 
 1.0000000000000000
     3.3029999999999999    0.0000000000000000    0.0000000000000000
    -1.6514999999999991    2.8604819087000011    0.0000000000000000
     0.0000000000000000    0.0000000000000000   25.8299999999999983
 Zn  Ni  N   S  
   3   6   3   6
Direct
  0.0000000000000000  0.0000000000000000  0.0000000000000000
  0.7969700000000000  0.2030300000000000  0.3341900000000000
  0.2030299999999999  0.7969700000000000  0.6658100000000000
  0.8309700000000000  0.1690300000000000  0.8680000000000000
  0.1690300000000000  0.8309700000000000  0.1320000000000000
  0.7771800000000000  0.2228200000000000  0.2033700000000000
  0.6695600000000000  0.3304400000000000  0.4623200000000000
  0.3304400000000000  0.6695600000000000  0.5376800000000000
  0.2228200000000000  0.7771800000000000  0.7966300000000001
  0.0000000000000000  0.0000000000000000  0.5000000000000000
  0.6644800000000000  0.3355200000000000  0.8006300000000001
  0.3355200000000000  0.6644800000000000  0.1993700000000000
  0.8522999999999999  0.1477000000000000  0.7597900000000001
  0.1477000000000000  0.8522999999999998  0.2402100000000000
  0.8593799999999999  0.1406200000000000  0.0875600000000000
  0.6605899999999998  0.3394100000000000  0.5804900000000000
  0.3394099999999999  0.6605900000000000  0.4195100000000000
  0.1406200000000001  0.8593800000000001  0.9124400000000001
