Mg Ru  N Se 
 1.0000000000000000
     3.3029999999999999    0.0000000000000000    0.0000000000000000
    -1.6514999999999993    2.8604819087000011    0.0000000000000000
     0.0000000000000000    0.0000000000000000   25.8299999999999983
 Mg  Ru  N   Se 
   3   6   3   6
Direct
  0.0000000000000000  0.0000000000000000  0.0000000000000000
  0.6666700000000000  0.3333300000000000  0.3333400000000001
  0.3333300000000000  0.6666700000000000  0.6666600000000001
  0.0000000000000000  0.0000000000000000  0.8736100000000000
  0.0000000000000000  0.0000000000000000  0.1263900000000000
  0.6666700000000000  0.3333300000000000  0.2069300000000000
  0.6666600000000000  0.3333400000000000  0.4597300000000000
  0.3333400000000000  0.6666600000000000  0.5402700000000000
  0.3333300000000000  0.6666700000000000  0.7930700000000001
  0.0000000000000000  0.0000000000000000  0.5000000000000000
  0.6666700000000000  0.3333300000000000  0.8335000000000001
  0.3333300000000000  0.6666700000000000  0.1665000000000000
  0.0000000000000000  0.0000000000000000  0.7551800000000000
  0.0000000000000000  0.0000000000000000  0.2448200000000000
  0.6666700000000000  0.3333300000000000  0.0885100000000000
  0.6666700000000000  0.3333300000000000  0.5781600000000000
  0.3333300000000000  0.6666700000000000  0.4218400000000000
  0.3333300000000000  0.6666700000000000  0.9114900000000000
