 Y Se Bi 
 1.0000000000000000
     3.2690000000000001    0.0000000000000000    0.0000000000000000
    -1.6344999999999994    2.8310370449713305    0.0000000000000000
     0.0000000000000000    0.0000000000000000    8.5470000000000006
 Y   Se  Bi 
   2   2   1
Direct
  0.5116600000000000  0.2558300000000000  0.7424500000000001
  0.4883400000000000  0.7441700000000000  0.2575500000000000
  0.8144600000000000  0.4072300000000000  0.3516300000000000
  0.1855400000000000  0.5927700000000000  0.6483700000000000
  0.0000000000000000  0.0000000000000000  0.0000000000000000
