Ti Hf  S  N 
 1.0000000000000000
     3.3121000000000000    0.0000000000000000    0.0000000000000000
    -1.6560499999999994    2.8683627398744393    0.0000000000000000
     0.0000000000000000    0.0000000000000000    9.0113000000000003
 Ti  Hf  S   N  
   2   2   2   1
Direct
  0.6666600000000003  0.3333300000000000  0.5794000000000000
  0.3333400000000000  0.6666700000000000  0.4206000000000000
  0.6666600000000003  0.3333300000000000  0.8842300000000000
  0.3333400000000000  0.6666700000000000  0.1157700000000000
  0.6666800000000001  0.3333400000000000  0.2885900000000000
  0.3333200000000001  0.6666600000000000  0.7114100000000000
  0.0000000000000000  0.0000000000000000  0.0000000000000000
