Mn Ag  C Se
 1.0000000000000000
     3.3029999999999999    0.0000000000000000    0.0000000000000000
    -1.6514999999999993    2.8604819087000011    0.0000000000000000
     0.0000000000000000    0.0000000000000000   25.8299999999999983
 Mn  Ag  C   Se
   3   6   3   6
Direct
  0.0000000000000000  0.0000000000000000  0.0000000000000000
  0.6666800000000001  0.3333200000000000  0.3333100000000000
  0.3333200000000000  0.6666800000000001  0.6666900000000001
  0.9999899999999998  0.0000100000000000  0.8832400000000000
  0.0000100000000001  0.9999900000000002  0.1167600000000000
  0.6666600000000000  0.3333400000000000  0.2165700000000000
  0.6666700000000000  0.3333300000000000  0.4501000000000000
  0.3333300000000000  0.6666700000000000  0.5499000000000001
  0.3333400000000000  0.6666600000000000  0.7834300000000000
  0.0000000000000000  0.0000000000000000  0.5000000000000000
  0.6666800000000001  0.3333200000000000  0.8333300000000000
  0.3333200000000000  0.6666800000000001  0.1666700000000000
  0.0000100000000001  0.9999900000000002  0.7129400000000000
  0.9999899999999998  0.0000100000000000  0.2870600000000000
  0.6666800000000001  0.3333200000000000  0.0462800000000000
  0.6666499999999999  0.3333500000000000  0.6203700000000001
  0.3333499999999999  0.6666500000000000  0.3796300000000000
  0.3333200000000000  0.6666800000000001  0.9537200000000002
