 W Se Ge 
 1.0000000000000000
     3.2690000000000001    0.0000000000000000    0.0000000000000000
    -1.6344999999999994    2.8310370449713305    0.0000000000000000
     0.0000000000000000    0.0000000000000000    8.5470000000000006
 W   Se  Ge 
   2   2   1
Direct
  0.6570700000000000  0.3285400000000000  0.8615699999999999
  0.3429299999999999  0.6714600000000001  0.1384300000000000
  0.6234200000000000  0.3117100000000000  0.3232300000000000
  0.3765800000000000  0.6882900000000000  0.6767700000000000
  0.0000000000000000  0.0000000000000000  0.0000000000000000
