Ag Ti  C  S
 1.0000000000000000
     3.3029999999999999    0.0000000000000000    0.0000000000000000
    -1.6514999999999991    2.8604819087000011    0.0000000000000000
     0.0000000000000000    0.0000000000000000   25.8299999999999983
 Ag  Ti  C   S
   3   6   3   6
Direct
  0.0000000000000000  0.0000000000000000  0.0000000000000000
  0.6666700000000000  0.3333300000000000  0.3333300000000001
  0.3333300000000000  0.6666700000000000  0.6666700000000001
  0.0000000000000000  0.0000000000000000  0.8753500000000000
  0.0000000000000000  0.0000000000000000  0.1246500000000000
  0.6666700000000000  0.3333300000000000  0.2086800000000001
  0.6666700000000000  0.3333300000000000  0.4579900000000000
  0.3333300000000000  0.6666700000000000  0.5420100000000000
  0.3333300000000000  0.6666700000000000  0.7913200000000000
  0.0000000000000000  0.0000000000000000  0.5000000000000000
  0.6666700000000000  0.3333300000000000  0.8333300000000000
  0.3333300000000000  0.6666700000000000  0.1666700000000000
  0.0000000000000000  0.0000000000000000  0.7339400000000000
  0.0000000000000000  0.0000000000000000  0.2660600000000000
  0.6666700000000000  0.3333300000000000  0.0672700000000000
  0.6666700000000000  0.3333300000000000  0.5994000000000000
  0.3333300000000000  0.6666700000000000  0.4006000000000000
  0.3333300000000000  0.6666700000000000  0.9327299999999999
