Sc Se Ga 
 1.0000000000000000
     3.2709999999999999    0.0000000000000000    0.0000000000000000
    -1.6354999999999993    2.8327690957788989    0.0000000000000000
     0.0000000000000000    0.0000000000000000   25.4780000000000015
 Sc  Se  Ga 
   6   6   3
Direct
  0.9999999999999997  0.9999999999999998  0.5770400000000000
  0.0000000000000000  0.0000000000000000  0.4229600000000000
  0.6666700000000000  0.3333300000000000  0.9103799999999997
  0.6666700000000000  0.3333300000000000  0.7562900000000000
  0.3333300000000000  0.6666700000000000  0.2437100000000000
  0.3333300000000000  0.6666700000000000  0.0896200000000000
  0.0000100000000000  0.9999899999999999  0.7823900000000000
  0.9999900000000000  0.0000100000000000  0.2176100000000000
  0.6666700000000000  0.3333300000000000  0.1157200000000000
  0.6666700000000000  0.3333300000000000  0.5509500000000001
  0.3333300000000000  0.6666700000000000  0.4490500000000000
  0.3333300000000000  0.6666700000000000  0.8842799999999998
  0.0000000000000000  0.0000000000000000  0.0000000000000000
  0.6666800000000001  0.3333199999999999  0.3333300000000000
  0.3333199999999999  0.6666800000000001  0.6666699999999999
