Mg Cu  C  S
 1.0000000000000000
     3.3029999999999999    0.0000000000000000    0.0000000000000000
    -1.6514999999999991    2.8604819087000011    0.0000000000000000
     0.0000000000000000    0.0000000000000000   25.8299999999999983
 Mg  Cu  C   S
   3   6   3   6
Direct
  0.0000000000000000  0.0000000000000000  0.0000000000000000
  0.6666700000000000  0.3333300000000000  0.3333300000000001
  0.3333300000000000  0.6666700000000000  0.6666700000000001
  0.0000000000000000  0.0000000000000000  0.8729800000000000
  0.0000000000000000  0.0000000000000000  0.1270200000000000
  0.6666700000000000  0.3333300000000000  0.2063100000000000
  0.6666700000000000  0.3333300000000000  0.4603600000000000
  0.3333300000000000  0.6666700000000000  0.5396400000000000
  0.3333300000000000  0.6666700000000000  0.7936900000000001
  0.0000000000000000  0.0000000000000000  0.5000000000000000
  0.6666700000000000  0.3333300000000000  0.8333300000000000
  0.3333300000000000  0.6666700000000000  0.1666700000000000
  0.0000000000000000  0.0000000000000000  0.7315100000000000
  0.0000000000000000  0.0000000000000000  0.2684900000000000
  0.6666700000000000  0.3333300000000000  0.0648500000000000
  0.6666700000000000  0.3333300000000000  0.6018200000000000
  0.3333300000000000  0.6666700000000000  0.3981800000000000
  0.3333300000000000  0.6666700000000000  0.9351500000000000
