Fe Os  C Se
 1.0000000000000000
     3.3029999999999999    0.0000000000000000    0.0000000000000000
    -1.6514999999999993    2.8604819087000011    0.0000000000000000
     0.0000000000000000    0.0000000000000000   25.8299999999999983
 Fe  Os  C   Se
   3   6   3   6
Direct
  0.0000000000000000  0.0000000000000000  0.0000000000000000
  0.4377100000000000  0.5622900000000000  0.3220900000000000
  0.5622900000000000  0.4377100000000000  0.6779100000000000
  0.0170900000000001  0.9829100000000001  0.9071900000000002
  0.9829100000000000  0.0170900000000000  0.0928100000000000
  0.8163000000000000  0.1837000000000000  0.1846900000000000
  0.7355200000000000  0.2644800000000000  0.4603500000000000
  0.2644799999999999  0.7355200000000001  0.5396500000000000
  0.1837000000000000  0.8163000000000000  0.8153100000000000
  0.0000000000000000  0.0000000000000000  0.5000000000000000
  0.5175800000000000  0.4824200000000001  0.8048300000000002
  0.4824200000000000  0.5175800000000000  0.1951700000000000
  0.2250500000000001  0.7749500000000000  0.7132100000000001
  0.7749500000000000  0.2250500000000000  0.2867900000000000
  0.6530200000000000  0.3469800000000000  0.0519200000000000
  0.6697400000000000  0.3302600000000000  0.5923500000000000
  0.3302600000000000  0.6697400000000000  0.4076500000000000
  0.3469800000000000  0.6530200000000000  0.9480800000000000
