Ni Au  C  S
 1.0000000000000000
     3.3029999999999999    0.0000000000000000    0.0000000000000000
    -1.6514999999999991    2.8604819087000011    0.0000000000000000
     0.0000000000000000    0.0000000000000000   25.8299999999999983
 Ni  Au  C   S
   3   6   3   6
Direct
  0.0000000000000000  0.0000000000000000  0.0000000000000000
  0.6666700000000000  0.3333300000000000  0.3333300000000001
  0.3333300000000000  0.6666700000000000  0.6666700000000001
  0.0000000000000000  0.0000000000000000  0.8817500000000000
  0.0000000000000000  0.0000000000000000  0.1182500000000000
  0.6666700000000000  0.3333300000000000  0.2150800000000000
  0.6666700000000000  0.3333300000000000  0.4515900000000001
  0.3333300000000000  0.6666700000000000  0.5484100000000000
  0.3333300000000000  0.6666700000000000  0.7849200000000000
  0.0000000000000000  0.0000000000000000  0.5000000000000000
  0.6666700000000000  0.3333300000000000  0.8333400000000000
  0.3333300000000000  0.6666700000000000  0.1666600000000000
  0.0000000000000000  0.0000000000000000  0.7133699999999999
  0.0000000000000000  0.0000000000000000  0.2866300000000000
  0.6666700000000000  0.3333300000000000  0.0467000000000000
  0.6666600000000000  0.3333400000000000  0.6199700000000000
  0.3333400000000000  0.6666600000000000  0.3800300000000000
  0.3333300000000000  0.6666700000000000  0.9533000000000001
