Re  S Sb 
 1.0000000000000000
     3.2709999999999999    0.0000000000000000    0.0000000000000000
    -1.6354999999999993    2.8327690957788989    0.0000000000000000
     0.0000000000000000    0.0000000000000000   25.4780000000000015
 Re  S   Sb 
   6   6   3
Direct
  0.9997700000000000  0.0002300000000000  0.5869400000000000
  0.0002299999999999  0.9997699999999998  0.4130599999999999
  0.6669500000000000  0.3330500000000000  0.9202700000000000
  0.6669399999999999  0.3330600000000000  0.7463899999999999
  0.3330600000000000  0.6669400000000000  0.2536100000000000
  0.3330500000000000  0.6669499999999999  0.0797300000000000
  0.0002499999999998  0.9997499999999998  0.7805100000000000
  0.9997500000000000  0.0002500000000000  0.2194900000000000
  0.6664099999999999  0.3335899999999999  0.1138500000000000
  0.6664400000000000  0.3335600000000000  0.5528200000000000
  0.3335600000000000  0.6664399999999999  0.4471800000000000
  0.3335900000000000  0.6664099999999999  0.8861499999999999
  0.0000000000000000  0.0000000000000000  0.0000000000000000
  0.6667400000000000  0.3332600000000000  0.3333300000000000
  0.3332600000000000  0.6667400000000000  0.6666699999999999
