Mo Se Al 
 1.0000000000000000
     3.2709999999999999    0.0000000000000000    0.0000000000000000
    -1.6354999999999993    2.8327690957788989    0.0000000000000000
     0.0000000000000000    0.0000000000000000   25.4780000000000015
 Mo  Se  Al 
   6   6   3
Direct
  0.9999700000000000  0.0000300000000000  0.5802700000000000
  0.0000300000000000  0.9999700000000000  0.4197299999999999
  0.6667200000000000  0.3332800000000000  0.9136100000000000
  0.6666900000000000  0.3333099999999999  0.7530599999999998
  0.3333100000000000  0.6666900000000000  0.2469400000000000
  0.3332800000000000  0.6667200000000000  0.0863900000000000
  0.0000199999999999  0.9999799999999998  0.7832199999999999
  0.9999800000000000  0.0000200000000000  0.2167800000000000
  0.6666200000000000  0.3333800000000000  0.1165500000000000
  0.6666399999999999  0.3333600000000000  0.5501100000000000
  0.3333600000000000  0.6666399999999999  0.4498899999999999
  0.3333799999999999  0.6666199999999999  0.8834500000000000
  0.0000000000000000  0.0000000000000000  0.0000000000000000
  0.6666600000000000  0.3333400000000000  0.3333300000000000
  0.3333400000000000  0.6666600000000000  0.6666699999999999
