 V Hg  C Te
 1.0000000000000000
     3.3029999999999999    0.0000000000000000    0.0000000000000000
    -1.6514999999999993    2.8604819087000011    0.0000000000000000
     0.0000000000000000    0.0000000000000000   25.8299999999999983
 V   Hg  C   Te
   3   6   3   6
Direct
  0.0000000000000000  0.0000000000000000  0.0000000000000000
  0.7930800000000000  0.2069200000000000  0.3193000000000000
  0.2069199999999999  0.7930800000000000  0.6807000000000000
  0.0272100000000000  0.9727900000000000  0.8763700000000000
  0.9727900000000000  0.0272100000000000  0.1236300000000000
  0.7408600000000000  0.2591400000000000  0.2179500000000000
  0.6550199999999999  0.3449800000000000  0.4523100000000000
  0.3449800000000000  0.6550200000000000  0.5476900000000000
  0.2591400000000000  0.7408600000000000  0.7820500000000000
  0.0000000000000000  0.0000000000000000  0.5000000000000000
  0.7301699999999998  0.2698300000000000  0.8277700000000000
  0.2698299999999999  0.7301700000000000  0.1722300000000000
  0.8866600000000000  0.1133400000000000  0.7107200000000000
  0.1133400000000000  0.8866600000000000  0.2892800000000000
  0.6632099999999997  0.3367900000000000  0.0498300000000000
  0.6803800000000000  0.3196200000000000  0.6193800000000000
  0.3196200000000000  0.6803800000000000  0.3806200000000001
  0.3367900000000000  0.6632100000000000  0.9501700000000001
