Mn Zr  C  S
 1.0000000000000000
     3.3029999999999999    0.0000000000000000    0.0000000000000000
    -1.6514999999999991    2.8604819087000011    0.0000000000000000
     0.0000000000000000    0.0000000000000000   25.8299999999999983
 Mn  Zr  C   S
   3   6   3   6
Direct
  0.0000000000000000  0.0000000000000000  0.0000000000000000
  0.6666700000000000  0.3333300000000000  0.3333300000000001
  0.3333300000000000  0.6666700000000000  0.6666700000000001
  0.0000000000000000  0.0000000000000000  0.8817700000000001
  0.0000000000000000  0.0000000000000000  0.1182300000000000
  0.6666600000000000  0.3333400000000000  0.2151000000000001
  0.6666700000000000  0.3333300000000000  0.4515700000000000
  0.3333300000000000  0.6666700000000000  0.5484300000000000
  0.3333400000000000  0.6666600000000000  0.7849000000000000
  0.0000000000000000  0.0000000000000000  0.5000000000000000
  0.6666700000000000  0.3333300000000000  0.8333300000000000
  0.3333300000000000  0.6666700000000000  0.1666700000000000
  0.0000100000000001  0.9999900000000002  0.7150200000000000
  0.9999899999999998  0.0000100000000000  0.2849800000000000
  0.6666800000000001  0.3333200000000000  0.0483500000000000
  0.6666600000000000  0.3333400000000000  0.6183100000000000
  0.3333400000000000  0.6666600000000000  0.3816900000000000
  0.3333200000000000  0.6666800000000001  0.9516500000000001
