 Y Se Sb 
 1.0000000000000000
     3.2709999999999999    0.0000000000000000    0.0000000000000000
    -1.6354999999999993    2.8327690957788989    0.0000000000000000
     0.0000000000000000    0.0000000000000000   25.4780000000000015
 Y   Se  Sb 
   6   6   3
Direct
  0.9565900000000001  0.0434100000000000  0.5816100000000000
  0.0434099999999999  0.9565899999999999  0.4183900000000000
  0.7621100000000000  0.2378900000000000  0.9132000000000000
  0.8616599999999999  0.1383400000000000  0.7508100000000000
  0.1383399999999999  0.8616599999999998  0.2491900000000000
  0.2378899999999999  0.7621099999999997  0.0868000000000000
  0.1920599999999999  0.8079399999999998  0.7833300000000000
  0.8079399999999999  0.1920600000000000  0.2166700000000000
  0.5714399999999998  0.4285599999999999  0.1191400000000000
  0.6230300000000000  0.3769700000000000  0.5491600000000000
  0.3769700000000000  0.6230299999999999  0.4508400000000000
  0.4285600000000000  0.5714399999999999  0.8808600000000000
  0.0000000000000000  0.0000000000000000  0.0000000000000000
  0.8092500000000000  0.1907499999999999  0.3283300000000000
  0.1907500000000001  0.8092500000000000  0.6716700000000000
