Li Ag  C Se
 1.0000000000000000
     3.3029999999999999    0.0000000000000000    0.0000000000000000
    -1.6514999999999993    2.8604819087000011    0.0000000000000000
     0.0000000000000000    0.0000000000000000   25.8299999999999983
 Li  Ag  C   Se
   3   6   3   6
Direct
  0.0000000000000000  0.0000000000000000  0.0000000000000000
  0.6666700000000000  0.3333300000000000  0.3333300000000001
  0.3333300000000000  0.6666700000000000  0.6666700000000001
  0.0000000000000000  0.0000000000000000  0.8798600000000000
  0.0000000000000000  0.0000000000000000  0.1201400000000000
  0.6666700000000000  0.3333300000000000  0.2131900000000000
  0.6666600000000000  0.3333400000000000  0.4534700000000000
  0.3333400000000000  0.6666600000000000  0.5465300000000000
  0.3333300000000000  0.6666700000000000  0.7868100000000000
  0.0000000000000000  0.0000000000000000  0.5000000000000000
  0.6666700000000000  0.3333300000000000  0.8333300000000000
  0.3333300000000000  0.6666700000000000  0.1666700000000000
  0.0000000000000000  0.0000000000000000  0.7230400000000000
  0.0000000000000000  0.0000000000000000  0.2769600000000000
  0.6666700000000000  0.3333300000000000  0.0563700000000000
  0.6666700000000000  0.3333300000000000  0.6103000000000000
  0.3333300000000000  0.6666700000000000  0.3897000000000000
  0.3333300000000000  0.6666700000000000  0.9436300000000002
