Cr Cu  C  S
 1.0000000000000000
     3.3029999999999999    0.0000000000000000    0.0000000000000000
    -1.6514999999999991    2.8604819087000011    0.0000000000000000
     0.0000000000000000    0.0000000000000000   25.8299999999999983
 Cr  Cu  C   S
   3   6   3   6
Direct
  0.0000000000000000  0.0000000000000000  0.0000000000000000
  0.6666700000000000  0.3333300000000000  0.3333300000000001
  0.3333300000000000  0.6666700000000000  0.6666700000000001
  0.0000000000000000  0.0000000000000000  0.8668200000000000
  0.0000000000000000  0.0000000000000000  0.1331800000000000
  0.6666700000000000  0.3333300000000000  0.2001500000000000
  0.6666700000000000  0.3333300000000000  0.4665100000000000
  0.3333300000000000  0.6666700000000000  0.5334900000000000
  0.3333300000000000  0.6666700000000000  0.7998499999999999
  0.0000000000000000  0.0000000000000000  0.5000000000000000
  0.6666700000000000  0.3333300000000000  0.8333400000000000
  0.3333300000000000  0.6666700000000000  0.1666600000000000
  0.0000000000000000  0.0000000000000000  0.7199600000000002
  0.0000000000000000  0.0000000000000000  0.2800400000000000
  0.6666700000000000  0.3333300000000000  0.0532900000000000
  0.6666600000000000  0.3333400000000000  0.6133800000000000
  0.3333400000000000  0.6666600000000000  0.3866200000000001
  0.3333300000000000  0.6666700000000000  0.9467100000000001
