Cr Os  C Se
 1.0000000000000000
     3.3029999999999999    0.0000000000000000    0.0000000000000000
    -1.6514999999999993    2.8604819087000011    0.0000000000000000
     0.0000000000000000    0.0000000000000000   25.8299999999999983
 Cr  Os  C   Se
   3   6   3   6
Direct
  0.0000000000000000  0.0000000000000000  0.0000000000000000
  0.2733800000000000  0.7266200000000000  0.3223900000000001
  0.7266199999999998  0.2733800000000000  0.6776100000000002
  0.9954399999999998  0.0045600000000000  0.9112700000000000
  0.0045600000000000  0.9954400000000000  0.0887300000000000
  0.0221700000000000  0.9778300000000000  0.1788000000000000
  0.7372800000000002  0.2627200000000000  0.4608400000000000
  0.2627199999999999  0.7372800000000000  0.5391600000000000
  0.9778299999999998  0.0221700000000000  0.8212000000000000
  0.0000000000000000  0.0000000000000000  0.5000000000000000
  0.3109499999999999  0.6890500000000001  0.8103400000000001
  0.6890500000000001  0.3109500000000000  0.1896600000000000
  0.3923800000000000  0.6076200000000000  0.7025300000000000
  0.6076200000000000  0.3923800000000000  0.2974700000000000
  0.6693300000000000  0.3306700000000000  0.0465300000000000
  0.7219000000000000  0.2781000000000000  0.5952700000000000
  0.2781000000000000  0.7219000000000000  0.4047300000000000
  0.3306699999999999  0.6693300000000000  0.9534700000000000
