Ni Hg  C Se
 1.0000000000000000
     3.3029999999999999    0.0000000000000000    0.0000000000000000
    -1.6514999999999993    2.8604819087000011    0.0000000000000000
     0.0000000000000000    0.0000000000000000   25.8299999999999983
 Ni  Hg  C   Se
   3   6   3   6
Direct
  0.0000000000000000  0.0000000000000000  0.0000000000000000
  0.6666700000000000  0.3333300000000000  0.3333300000000001
  0.3333300000000000  0.6666700000000000  0.6666700000000001
  0.0000000000000000  0.0000000000000000  0.8830300000000000
  0.0000000000000000  0.0000000000000000  0.1169700000000000
  0.6666700000000000  0.3333300000000000  0.2163600000000000
  0.6666700000000000  0.3333300000000000  0.4503000000000000
  0.3333300000000000  0.6666700000000000  0.5497000000000000
  0.3333300000000000  0.6666700000000000  0.7836400000000000
  0.0000000000000000  0.0000000000000000  0.5000000000000000
  0.6666700000000000  0.3333300000000000  0.8333300000000000
  0.3333300000000000  0.6666700000000000  0.1666700000000000
  0.0000000000000000  0.0000000000000000  0.7171600000000000
  0.0000000000000000  0.0000000000000000  0.2828400000000000
  0.6666700000000000  0.3333300000000000  0.0504900000000000
  0.6666700000000000  0.3333300000000000  0.6161799999999999
  0.3333300000000000  0.6666700000000000  0.3838200000000000
  0.3333300000000000  0.6666700000000000  0.9495100000000000
