 V Se As 
 1.0000000000000000
     3.2709999999999999    0.0000000000000000    0.0000000000000000
    -1.6354999999999993    2.8327690957788989    0.0000000000000000
     0.0000000000000000    0.0000000000000000   25.4780000000000015
 V   Se  As 
   6   6   3
Direct
  0.9999999999999997  0.9999999999999998  0.6344699999999999
  0.0000000000000000  0.0000000000000000  0.3655300000000000
  0.6666700000000000  0.3333300000000000  0.9678099999999997
  0.6666700000000000  0.3333300000000000  0.6988499999999999
  0.3333300000000000  0.6666700000000000  0.3011500000000000
  0.3333300000000000  0.6666700000000000  0.0321900000000000
  0.9999800000000000  0.0000200000000000  0.7723100000000001
  0.0000199999999999  0.9999799999999998  0.2276900000000000
  0.6666900000000000  0.3333099999999999  0.1056400000000000
  0.6666800000000001  0.3333199999999999  0.5610400000000000
  0.3333199999999999  0.6666800000000001  0.4389600000000000
  0.3333100000000000  0.6666900000000000  0.8943600000000000
  0.0000000000000000  0.0000000000000000  0.0000000000000000
  0.6666600000000000  0.3333400000000000  0.3333300000000000
  0.3333400000000000  0.6666600000000000  0.6666699999999999
