Ta Se Al 
 1.0000000000000000
     3.2709999999999999    0.0000000000000000    0.0000000000000000
    -1.6354999999999993    2.8327690957788989    0.0000000000000000
     0.0000000000000000    0.0000000000000000   25.4780000000000015
 Ta  Se  Al 
   6   6   3
Direct
  0.0000000000000000  0.0000000000000000  0.5788200000000000
  0.9999999999999997  0.9999999999999998  0.4211799999999999
  0.6666700000000000  0.3333300000000000  0.9121600000000000
  0.6666700000000000  0.3333300000000000  0.7545199999999999
  0.3333300000000000  0.6666700000000000  0.2454800000000000
  0.3333300000000000  0.6666700000000000  0.0878400000000000
  0.0000000000000000  0.0000000000000000  0.7874199999999999
  0.9999999999999997  0.9999999999999998  0.2125800000000000
  0.6666700000000000  0.3333300000000000  0.1207500000000000
  0.6666700000000000  0.3333300000000000  0.5459100000000000
  0.3333300000000000  0.6666700000000000  0.4540899999999999
  0.3333300000000000  0.6666700000000000  0.8792500000000000
  0.0000000000000000  0.0000000000000000  0.0000000000000000
  0.6666600000000000  0.3333400000000000  0.3333300000000000
  0.3333400000000000  0.6666600000000000  0.6666699999999999
