Ca Co  C Te
 1.0000000000000000
     3.3029999999999999    0.0000000000000000    0.0000000000000000
    -1.6514999999999991    2.8604819087000011    0.0000000000000000
     0.0000000000000000    0.0000000000000000   25.8299999999999983
 Ca  Co  C   Te
   3   6   3   6
Direct
  0.0000000000000000  0.0000000000000000  0.0000000000000000
  0.6666700000000000  0.3333300000000000  0.3333300000000001
  0.3333300000000000  0.6666700000000000  0.6666700000000001
  0.0000000000000000  0.0000000000000000  0.8612800000000002
  0.0000000000000000  0.0000000000000000  0.1387200000000000
  0.6666700000000000  0.3333300000000000  0.1946200000000000
  0.6666700000000000  0.3333300000000000  0.4720500000000000
  0.3333300000000000  0.6666700000000000  0.5279500000000000
  0.3333300000000000  0.6666700000000000  0.8053800000000000
  0.0000000000000000  0.0000000000000000  0.5000000000000000
  0.6666700000000000  0.3333300000000000  0.8333300000000000
  0.3333300000000000  0.6666700000000000  0.1666700000000000
  0.0000000000000000  0.0000000000000000  0.7456700000000001
  0.0000000000000000  0.0000000000000000  0.2543300000000000
  0.6666700000000000  0.3333300000000000  0.0790000000000000
  0.6666600000000000  0.3333400000000000  0.5876700000000000
  0.3333400000000000  0.6666600000000000  0.4123300000000000
  0.3333300000000000  0.6666700000000000  0.9210000000000000
