Zr Te Sn 
 1.0000000000000000
     3.2709999999999999    0.0000000000000000    0.0000000000000000
    -1.6354999999999993    2.8327690957788989    0.0000000000000000
     0.0000000000000000    0.0000000000000000   25.4780000000000015
 Zr  Te  Sn 
   6   6   3
Direct
  0.9999999999999997  0.9999999999999998  0.6068700000000000
  0.0000000000000000  0.0000000000000000  0.3931299999999999
  0.6666700000000000  0.3333300000000000  0.9401999999999999
  0.6666700000000000  0.3333300000000000  0.7264600000000000
  0.3333300000000000  0.6666700000000000  0.2735400000000000
  0.3333300000000000  0.6666700000000000  0.0598000000000000
  0.0000000000000000  0.0000000000000000  0.7784799999999999
  0.9999999999999997  0.9999999999999998  0.2215200000000000
  0.6666700000000000  0.3333300000000000  0.1118100000000000
  0.6666700000000000  0.3333300000000000  0.5548500000000000
  0.3333300000000000  0.6666700000000000  0.4451500000000000
  0.3333300000000000  0.6666700000000000  0.8881899999999998
  0.0000000000000000  0.0000000000000000  0.0000000000000000
  0.6666700000000000  0.3333300000000000  0.3333300000000000
  0.3333300000000000  0.6666700000000000  0.6666699999999999
