Mo  S As 
 1.0000000000000000
     3.2709999999999999    0.0000000000000000    0.0000000000000000
    -1.6354999999999993    2.8327690957788989    0.0000000000000000
     0.0000000000000000    0.0000000000000000   25.4780000000000015
 Mo  S   As 
   6   6   3
Direct
  0.9961200000000000  0.0038800000000000  0.5852000000000001
  0.0038800000000000  0.9961200000000000  0.4147999999999999
  0.8199199999999999  0.1800799999999999  0.9162899999999999
  0.7330800000000000  0.2669200000000000  0.7467300000000000
  0.2669199999999999  0.7330799999999998  0.2532700000000000
  0.1800799999999999  0.8199199999999999  0.0837100000000000
  0.0592699999999998  0.9407299999999997  0.7744500000000000
  0.9407300000000000  0.0592700000000000  0.2255500000000000
  0.5166599999999999  0.4833399999999999  0.1119900000000000
  0.6577699999999999  0.3422300000000000  0.5568100000000000
  0.3422299999999999  0.6577700000000000  0.4431900000000000
  0.4833400000000000  0.5166600000000000  0.8880100000000000
 -0.0000000000000001  0.9999999999999998  0.0000000000000000
  0.8071199999999999  0.1928800000000000  0.3309700000000000
  0.1928799999999999  0.8071199999999998  0.6690300000000000
