Zn Ru  C  S
 1.0000000000000000
     3.3029999999999999    0.0000000000000000    0.0000000000000000
    -1.6514999999999991    2.8604819087000011    0.0000000000000000
     0.0000000000000000    0.0000000000000000   25.8299999999999983
 Zn  Ru  C   S
   3   6   3   6
Direct
  0.0000000000000000  0.0000000000000000  0.0000000000000000
  0.6666700000000000  0.3333300000000000  0.3333300000000001
  0.3333300000000000  0.6666700000000000  0.6666700000000001
  0.0000000000000000  0.0000000000000000  0.8687400000000000
  0.0000000000000000  0.0000000000000000  0.1312600000000000
  0.6666700000000000  0.3333300000000000  0.2020800000000000
  0.6666700000000000  0.3333300000000000  0.4646000000000000
  0.3333300000000000  0.6666700000000000  0.5354000000000000
  0.3333300000000000  0.6666700000000000  0.7979200000000001
  0.0000000000000000  0.0000000000000000  0.5000000000000000
  0.6666700000000000  0.3333300000000000  0.8333400000000000
  0.3333300000000000  0.6666700000000000  0.1666600000000000
  0.0000000000000000  0.0000000000000000  0.7278800000000000
  0.0000000000000000  0.0000000000000000  0.2721200000000000
  0.6666700000000000  0.3333300000000000  0.0612100000000000
  0.6666700000000000  0.3333300000000000  0.6054500000000000
  0.3333300000000000  0.6666700000000000  0.3945500000000000
  0.3333300000000000  0.6666700000000000  0.9387900000000001
