Ti Zr  C Se
 1.0000000000000000
     3.3029999999999999    0.0000000000000000    0.0000000000000000
    -1.6514999999999993    2.8604819087000011    0.0000000000000000
     0.0000000000000000    0.0000000000000000   25.8299999999999983
 Ti  Zr  C   Se
   3   6   3   6
Direct
  0.0000000000000000  0.0000000000000000  0.0000000000000000
  0.6762200000000000  0.3237800000000000  0.3113700000000000
  0.3237800000000000  0.6762200000000000  0.6886300000000000
  0.9797000000000000  0.0203000000000000  0.8528000000000000
  0.0203000000000000  0.9797000000000000  0.1472000000000000
  0.6890400000000000  0.3109600000000000  0.2027600000000000
  0.6677999999999999  0.3322000000000000  0.4720200000000001
  0.3321999999999999  0.6677999999999999  0.5279800000000000
  0.3109600000000000  0.6890400000000000  0.7972399999999999
  0.0000000000000000  0.0000000000000000  0.5000000000000000
  0.6462699999999999  0.3537300000000000  0.8234200000000000
  0.3537299999999999  0.6462700000000000  0.1765800000000000
  0.9961099999999998  0.0038900000000000  0.7162500000000001
  0.0038900000000000  0.9961100000000001  0.2837500000000000
  0.6661599999999998  0.3338400000000000  0.0566400000000000
  0.8091699999999999  0.1908300000000000  0.6185800000000000
  0.1908300000000000  0.8091699999999999  0.3814200000000000
  0.3338400000000000  0.6661600000000000  0.9433600000000000
