Ru Te  N 
 1.0000000000000000
     3.2709999999999999    0.0000000000000000    0.0000000000000000
    -1.6354999999999991    2.8327690957788989    0.0000000000000000
     0.0000000000000000    0.0000000000000000   25.4780000000000015
 Ru  Te  N  
   6   6   3
Direct
  0.9999999999999997  0.9999999999999998  0.6304400000000000
  0.0000000000000000  0.0000000000000000  0.3695600000000000
  0.6666700000000000  0.3333300000000000  0.9637700000000000
  0.6666700000000000  0.3333300000000000  0.7028899999999999
  0.3333300000000000  0.6666700000000000  0.2971100000000000
  0.3333300000000000  0.6666700000000000  0.0362300000000000
  0.0000000000000000  0.0000000000000000  0.7780099999999999
  0.9999999999999997  0.9999999999999998  0.2219900000000000
  0.6666700000000000  0.3333300000000000  0.1113400000000000
  0.6666700000000000  0.3333300000000000  0.5553300000000000
  0.3333300000000000  0.6666700000000000  0.4446700000000000
  0.3333300000000000  0.6666700000000000  0.8886600000000000
  0.0000000000000000  0.0000000000000000  0.0000000000000000
  0.6666700000000000  0.3333300000000000  0.3333300000000000
  0.3333300000000000  0.6666700000000000  0.6666699999999999
