Ru  S  C 
 1.0000000000000000
     3.2709999999999999    0.0000000000000000    0.0000000000000000
    -1.6354999999999993    2.8327690957788989    0.0000000000000000
     0.0000000000000000    0.0000000000000000   25.4780000000000015
 Ru  S   C  
   6   6   3
Direct
  0.9999900000000000  0.0000100000000000  0.6284300000000000
  0.0000100000000000  0.9999899999999999  0.3715700000000000
  0.6666700000000000  0.3333300000000000  0.9617800000000000
  0.6666800000000001  0.3333199999999999  0.7048800000000000
  0.3333199999999999  0.6666800000000001  0.2951200000000000
  0.3333300000000000  0.6666700000000000  0.0382200000000000
  0.0000000000000000  0.0000000000000000  0.7635400000000000
  0.9999999999999997  0.9999999999999998  0.2364600000000000
  0.6666600000000000  0.3333400000000000  0.0968700000000000
  0.6666700000000000  0.3333300000000000  0.5698000000000000
  0.3333300000000000  0.6666700000000000  0.4302000000000000
  0.3333400000000000  0.6666600000000000  0.9031299999999998
  0.0000000000000000  0.0000000000000000  0.0000000000000000
  0.6666700000000000  0.3333300000000000  0.3333199999999999
  0.3333300000000000  0.6666700000000000  0.6666800000000001
