Ni  Y  C Te
 1.0000000000000000
     3.3029999999999999    0.0000000000000000    0.0000000000000000
    -1.6514999999999993    2.8604819087000011    0.0000000000000000
     0.0000000000000000    0.0000000000000000   25.8299999999999983
 Ni  Y   C   Te
   3   6   3   6
Direct
  0.0000000000000000  0.0000000000000000  0.0000000000000000
  0.6666600000000000  0.3333400000000000  0.3333300000000001
  0.3333400000000000  0.6666600000000000  0.6666700000000001
  0.9999899999999998  0.0000100000000000  0.8613000000000001
  0.0000100000000001  0.9999900000000002  0.1387000000000000
  0.6666900000000000  0.3333100000000000  0.1946300000000000
  0.6666700000000000  0.3333300000000000  0.4720400000000000
  0.3333300000000000  0.6666700000000000  0.5279600000000000
  0.3333099999999999  0.6666900000000000  0.8053700000000000
  0.0000000000000000  0.0000000000000000  0.5000000000000000
  0.6666600000000000  0.3333400000000000  0.8333300000000000
  0.3333400000000000  0.6666600000000000  0.1666700000000000
  0.0000200000000001  0.9999800000000001  0.7269000000000002
  0.9999800000000000  0.0000200000000000  0.2731000000000000
  0.6666600000000000  0.3333400000000000  0.0602300000000000
  0.6666800000000001  0.3333200000000000  0.6064300000000000
  0.3333200000000000  0.6666800000000001  0.3935700000000000
  0.3333400000000000  0.6666600000000000  0.9397700000000000
