Hg Se Si 
 1.0000000000000000
     3.2690000000000001    0.0000000000000000    0.0000000000000000
    -1.6344999999999994    2.8310370449713305    0.0000000000000000
     0.0000000000000000    0.0000000000000000    8.5470000000000006
 Hg  Se  Si 
   2   2   1
Direct
  0.7047499999999998  0.3523800000000000  0.7635700000000000
  0.2952499999999999  0.6476200000000000  0.2364300000000000
  0.6251900000000001  0.3125900000000000  0.4461000000000000
  0.3748100000000000  0.6874100000000000  0.5538999999999999
  0.0000000000000000  0.0000000000000000  0.0000000000000000
