Ir Al  S 
 1.0000000000000000
     3.3435999999999999    0.0000000000000000    0.0000000000000000
    -1.6717999999999993    2.8956425400936490    0.0000000000000000
     0.0000000000000000    0.0000000000000000   11.5808999999999997
 Ir  Al  S  
   4   2   2
Direct
  0.3329700000000000  0.6670300000000000  0.3547299999999999
  0.6670300000000000  0.3329700000000000  0.6452700000000000
  0.6670400000000000  0.3329600000000000  0.8547300000000000
  0.3329599999999999  0.6670400000000000  0.1452700000000000
  0.0000000000000000  0.0000000000000000  0.0000000000000000
  0.0000000000000000  0.0000000000000000  0.5000000000000000
  0.3336200000000000  0.6663800000000000  0.7500000000000000
  0.6663800000000000  0.3336200000000000  0.2500000000000000
