Cu Te Si 
 1.0000000000000000
     3.2709999999999999    0.0000000000000000    0.0000000000000000
    -1.6354999999999993    2.8327690957788989    0.0000000000000000
     0.0000000000000000    0.0000000000000000   25.4780000000000015
 Cu  Te  Si 
   6   6   3
Direct
  0.9999900000000000  0.0000100000000000  0.6133300000000000
  0.0000100000000000  0.9999899999999999  0.3866700000000000
  0.6666700000000000  0.3333300000000000  0.9466599999999999
  0.6666600000000000  0.3333400000000000  0.7199999999999999
  0.3333400000000000  0.6666600000000000  0.2800000000000000
  0.3333300000000000  0.6666700000000000  0.0533400000000000
  0.0000500000000000  0.9999500000000000  0.7883800000000000
  0.9999500000000000  0.0000500000000000  0.2116200000000000
  0.6667100000000000  0.3332900000000000  0.1217200000000000
  0.6667600000000000  0.3332399999999999  0.5449500000000000
  0.3332399999999999  0.6667599999999999  0.4550500000000000
  0.3332900000000000  0.6667100000000000  0.8782799999999999
  0.0000000000000000  0.0000000000000000  0.0000000000000000
  0.6667299999999999  0.3332700000000000  0.3333300000000000
  0.3332700000000000  0.6667299999999999  0.6666699999999999
