Cu Ru  C Se
 1.0000000000000000
     3.3029999999999999    0.0000000000000000    0.0000000000000000
    -1.6514999999999993    2.8604819087000011    0.0000000000000000
     0.0000000000000000    0.0000000000000000   25.8299999999999983
 Cu  Ru  C   Se
   3   6   3   6
Direct
  0.0000000000000000  0.0000000000000000  0.0000000000000000
  0.4379399999999999  0.5620600000000000  0.3295800000000000
  0.5620600000000001  0.4379400000000001  0.6704200000000000
  0.1815300000000000  0.8184700000000000  0.8804600000000001
  0.8184699999999998  0.1815300000000000  0.1195400000000000
  0.3952899999999999  0.6047100000000000  0.1992200000000000
  0.7285000000000000  0.2715000000000000  0.4618800000000000
  0.2715000000000001  0.7285000000000000  0.5381200000000000
  0.6047100000000000  0.3952900000000000  0.8007800000000000
  0.0000000000000000  0.0000000000000000  0.5000000000000000
  0.9214100000000000  0.0785900000000000  0.8103100000000001
  0.0785900000000000  0.9214100000000000  0.1896900000000000
  0.1068300000000000  0.8931700000000000  0.7401200000000000
  0.8931700000000000  0.1068300000000000  0.2598800000000000
  0.4858500000000000  0.5141500000000000  0.0778500000000000
  0.7088800000000000  0.2911200000000000  0.5887800000000000
  0.2911199999999999  0.7088800000000000  0.4112200000000000
  0.5141500000000000  0.4858500000000001  0.9221500000000001
