Cr Ru  N  S 
 1.0000000000000000
     3.3029999999999999    0.0000000000000000    0.0000000000000000
    -1.6514999999999991    2.8604819087000011    0.0000000000000000
     0.0000000000000000    0.0000000000000000   25.8299999999999983
 Cr  Ru  N   S  
   3   6   3   6
Direct
  0.0000000000000000  0.0000000000000000  0.0000000000000000
  0.6680800000000000  0.3319200000000000  0.3660600000000000
  0.3319200000000000  0.6680800000000000  0.6339399999999999
  0.0000600000000000  0.9999400000000002  0.9048900000000001
  0.9999399999999998  0.0000600000000000  0.0951100000000000
  0.6684200000000000  0.3315800000000000  0.2797600000000000
  0.6676400000000000  0.3323600000000000  0.4534100000000000
  0.3323600000000000  0.6676400000000000  0.5465900000000000
  0.3315800000000000  0.6684200000000000  0.7202400000000000
  0.0000000000000000  0.0000000000000000  0.5000000000000000
  0.6663899999999998  0.3336100000000000  0.8797000000000000
  0.3336099999999999  0.6663900000000000  0.1203000000000000
  0.9983500000000000  0.0016500000000000  0.6834800000000000
  0.0016500000000001  0.9983500000000001  0.3165200000000000
  0.6665600000000000  0.3334400000000000  0.0470900000000000
  0.6654299999999999  0.3345700000000000  0.5872700000000000
  0.3345699999999999  0.6654300000000000  0.4127300000000000
  0.3334400000000000  0.6665600000000000  0.9529100000000001
