Co Zn  C Te
 1.0000000000000000
     3.3029999999999999    0.0000000000000000    0.0000000000000000
    -1.6514999999999993    2.8604819087000011    0.0000000000000000
     0.0000000000000000    0.0000000000000000   25.8299999999999983
 Co  Zn  C   Te
   3   6   3   6
Direct
  0.0000000000000000  0.0000000000000000  0.0000000000000000
  0.6666700000000000  0.3333300000000000  0.3333300000000001
  0.3333300000000000  0.6666700000000000  0.6666700000000001
  0.0000000000000000  0.0000000000000000  0.8708200000000000
  0.0000000000000000  0.0000000000000000  0.1291800000000000
  0.6666700000000000  0.3333300000000000  0.2041600000000000
  0.6666700000000000  0.3333300000000000  0.4625100000000000
  0.3333300000000000  0.6666700000000000  0.5374900000000000
  0.3333300000000000  0.6666700000000000  0.7958400000000000
  0.0000000000000000  0.0000000000000000  0.5000000000000000
  0.6666700000000000  0.3333300000000000  0.8333300000000000
  0.3333300000000000  0.6666700000000000  0.1666700000000000
  0.0000000000000000  0.0000000000000000  0.7210600000000000
  0.0000000000000000  0.0000000000000000  0.2789400000000000
  0.6666700000000000  0.3333300000000000  0.0543900000000000
  0.6666700000000000  0.3333300000000000  0.6122700000000000
  0.3333300000000000  0.6666700000000000  0.3877300000000000
  0.3333300000000000  0.6666700000000000  0.9456100000000000
