Ti Cu  C Te
 1.0000000000000000
     3.3029999999999999    0.0000000000000000    0.0000000000000000
    -1.6514999999999993    2.8604819087000011    0.0000000000000000
     0.0000000000000000    0.0000000000000000   25.8299999999999983
 Ti  Cu  C   Te
   3   6   3   6
Direct
  0.0000000000000000  0.0000000000000000  0.0000000000000000
  0.5306200000000000  0.4693800000000000  0.3039300000000000
  0.4693800000000000  0.5306200000000000  0.6960700000000000
  0.9929799999999998  0.0070200000000000  0.8649600000000000
  0.0070200000000000  0.9929800000000000  0.1350400000000000
  0.5460900000000000  0.4539100000000000  0.1979300000000000
  0.5213400000000000  0.4786600000000000  0.4507300000000000
  0.4786599999999999  0.5213400000000000  0.5492700000000000
  0.4539100000000000  0.5460900000000000  0.8020699999999999
  0.0000000000000000  0.0000000000000000  0.5000000000000000
  0.5212000000000000  0.4788000000000000  0.8804600000000001
  0.4787999999999999  0.5212000000000000  0.1195400000000000
  0.1399700000000001  0.8600300000000001  0.7328000000000001
  0.8600299999999999  0.1399700000000000  0.2672000000000000
  0.6697900000000000  0.3302100000000000  0.0631300000000000
  0.9520800000000000  0.0479200000000000  0.6237300000000001
  0.0479200000000000  0.9520800000000000  0.3762700000000000
  0.3302100000000000  0.6697900000000000  0.9368700000000000
