Ta  S  N 
 1.0000000000000000
     3.2709999999999999    0.0000000000000000    0.0000000000000000
    -1.6354999999999993    2.8327690957788989    0.0000000000000000
     0.0000000000000000    0.0000000000000000   25.4780000000000015
 Ta  S   N  
   6   6   3
Direct
  0.9019300000000000  0.0980700000000000  0.6022200000000000
  0.0980699999999999  0.9019299999999998  0.3977800000000000
  0.6666900000000000  0.3333099999999999  0.9681300000000000
  0.6277000000000000  0.3723000000000000  0.7171000000000000
  0.3723000000000000  0.6276999999999999  0.2829000000000000
  0.3333100000000000  0.6666900000000000  0.0318700000000000
  0.0698899999999998  0.9301099999999998  0.7749400000000000
  0.9301100000000000  0.0698900000000000  0.2250600000000000
  0.6665200000000000  0.3334799999999999  0.0826500000000000
  0.5715599999999998  0.4284399999999999  0.5702100000000000
  0.4284399999999999  0.5715599999999998  0.4297900000000000
  0.3334800000000000  0.6665200000000000  0.9173500000000000
  0.0000000000000000  0.0000000000000000  0.0000000000000000
  0.7074900000000000  0.2925099999999999  0.2660400000000000
  0.2925099999999999  0.7074900000000000  0.7339599999999997
