Ru  S Sb 
 1.0000000000000000
     3.2709999999999999    0.0000000000000000    0.0000000000000000
    -1.6354999999999993    2.8327690957788989    0.0000000000000000
     0.0000000000000000    0.0000000000000000   25.4780000000000015
 Ru  S   Sb 
   6   6   3
Direct
  0.0000000000000000  0.0000000000000000  0.5917800000000000
  0.9999999999999997  0.9999999999999998  0.4082200000000000
  0.6666700000000000  0.3333300000000000  0.9251199999999999
  0.6666700000000000  0.3333300000000000  0.7415500000000000
  0.3333300000000000  0.6666700000000000  0.2584500000000000
  0.3333300000000000  0.6666700000000000  0.0748800000000000
  0.9999999999999997  0.9999999999999998  0.7821000000000000
  0.0000000000000000  0.0000000000000000  0.2179000000000000
  0.6666700000000000  0.3333300000000000  0.1154300000000000
  0.6666700000000000  0.3333300000000000  0.5512300000000000
  0.3333300000000000  0.6666700000000000  0.4487700000000000
  0.3333300000000000  0.6666700000000000  0.8845699999999997
  0.0000000000000000  0.0000000000000000  0.0000000000000000
  0.6666600000000000  0.3333400000000000  0.3333300000000000
  0.3333400000000000  0.6666600000000000  0.6666699999999999
