Mo Se  P 
 1.0000000000000000
     3.2709999999999999    0.0000000000000000    0.0000000000000000
    -1.6354999999999993    2.8327690957788989    0.0000000000000000
     0.0000000000000000    0.0000000000000000   25.4780000000000015
 Mo  Se  P  
   6   6   3
Direct
  0.9999900000000000  0.0000100000000000  0.6263500000000000
  0.0000100000000000  0.9999899999999999  0.3736500000000000
  0.6666900000000000  0.3333099999999999  0.9596799999999998
  0.6666800000000001  0.3333199999999999  0.7069800000000001
  0.3333199999999999  0.6666800000000001  0.2930200000000000
  0.3333100000000000  0.6666900000000000  0.0403200000000000
  0.9999800000000000  0.0000200000000000  0.7727300000000000
  0.0000199999999999  0.9999799999999998  0.2272699999999999
  0.6667100000000000  0.3332900000000000  0.1060600000000000
  0.6666900000000000  0.3333099999999999  0.5606000000000000
  0.3333100000000000  0.6666900000000000  0.4394000000000000
  0.3332900000000000  0.6667100000000000  0.8939400000000000
  0.0000000000000000  0.0000000000000000  0.0000000000000000
  0.6666700000000000  0.3333300000000000  0.3333300000000000
  0.3333300000000000  0.6666700000000000  0.6666699999999999
