Ca Ti  N Se 
 1.0000000000000000
     3.3029999999999999    0.0000000000000000    0.0000000000000000
    -1.6514999999999991    2.8604819087000011    0.0000000000000000
     0.0000000000000000    0.0000000000000000   25.8299999999999983
 Ca  Ti  N   Se 
   3   6   3   6
Direct
  0.0000000000000000  0.0000000000000000  0.0000000000000000
  0.6672699999999998  0.3327300000000000  0.3105300000000000
  0.3327300000000000  0.6672700000000000  0.6894700000000000
  0.9934300000000000  0.0065700000000000  0.8610300000000000
  0.0065700000000001  0.9934300000000001  0.1389700000000000
  0.6730699999999998  0.3269300000000000  0.1877600000000000
  0.6691800000000000  0.3308200000000000  0.4751300000000000
  0.3308200000000000  0.6691800000000000  0.5248699999999999
  0.3269299999999999  0.6730699999999999  0.8122400000000001
  0.0000000000000000  0.0000000000000000  0.5000000000000000
  0.6604700000000000  0.3395300000000000  0.8353500000000003
  0.3395300000000000  0.6604700000000000  0.1646500000000000
  0.9998200000000000  0.0001800000000000  0.7214200000000000
  0.0001800000000000  0.9998200000000000  0.2785800000000000
  0.6660900000000000  0.3339100000000000  0.0591000000000000
  0.7742899999999999  0.2257100000000000  0.5903400000000000
  0.2257099999999999  0.7742900000000000  0.4096600000000000
  0.3339100000000000  0.6660900000000000  0.9409000000000001
