Nb Te In 
 1.0000000000000000
     3.2709999999999999    0.0000000000000000    0.0000000000000000
    -1.6354999999999993    2.8327690957788989    0.0000000000000000
     0.0000000000000000    0.0000000000000000   25.4780000000000015
 Nb  Te  In 
   6   6   3
Direct
  0.9999999999999997  0.9999999999999998  0.6034800000000000
  0.0000000000000000  0.0000000000000000  0.3965200000000000
  0.6666700000000000  0.3333300000000000  0.9368100000000000
  0.6666700000000000  0.3333300000000000  0.7298499999999999
  0.3333300000000000  0.6666700000000000  0.2701500000000000
  0.3333300000000000  0.6666700000000000  0.0631900000000000
  0.9999999999999997  0.9999999999999998  0.7796999999999999
  0.0000000000000000  0.0000000000000000  0.2203000000000000
  0.6666700000000000  0.3333300000000000  0.1130400000000000
  0.6666700000000000  0.3333300000000000  0.5536300000000000
  0.3333300000000000  0.6666700000000000  0.4463700000000000
  0.3333300000000000  0.6666700000000000  0.8869600000000000
  0.0000000000000000  0.0000000000000000  0.0000000000000000
  0.6666700000000000  0.3333300000000000  0.3333300000000000
  0.3333300000000000  0.6666700000000000  0.6666699999999999
