 W Bi Se 
 1.0000000000000000
     3.3435999999999999    0.0000000000000000    0.0000000000000000
    -1.6717999999999993    2.8956425400936490    0.0000000000000000
     0.0000000000000000    0.0000000000000000   11.5808999999999997
 W   Bi  Se 
   4   2   2
Direct
  0.3332300000000000  0.6667700000000000  0.3459100000000001
  0.6667700000000000  0.3332300000000000  0.6540899999999999
  0.6667700000000000  0.3332300000000000  0.8459100000000001
  0.3332300000000000  0.6667700000000000  0.1540900000000000
  0.0000000000000000  0.0000000000000000  0.0000000000000000
  0.0000000000000000  0.0000000000000000  0.5000000000000000
  0.3334199999999999  0.6665800000000000  0.7500000000000000
  0.6665799999999997  0.3334200000000000  0.2500000000000000
