Ag Se As 
 1.0000000000000000
     3.2690000000000001    0.0000000000000000    0.0000000000000000
    -1.6344999999999994    2.8310370449713305    0.0000000000000000
     0.0000000000000000    0.0000000000000000    8.5470000000000006
 Ag  Se  As 
   2   2   1
Direct
  0.6944699999999999  0.3472400000000000  0.7864200000000000
  0.3055300000000000  0.6527600000000000  0.2135800000000000
  0.6309399999999998  0.3154700000000000  0.4382900000000000
  0.3690600000000000  0.6845300000000001  0.5617100000000000
  0.0000000000000000  0.0000000000000000  0.0000000000000000
