Ag  V  C Te
 1.0000000000000000
     3.3029999999999999    0.0000000000000000    0.0000000000000000
    -1.6514999999999993    2.8604819087000011    0.0000000000000000
     0.0000000000000000    0.0000000000000000   25.8299999999999983
 Ag  V   C   Te
   3   6   3   6
Direct
  0.0000000000000000  0.0000000000000000  0.0000000000000000
  0.6666700000000000  0.3333300000000000  0.3333300000000001
  0.3333300000000000  0.6666700000000000  0.6666700000000001
  0.0000000000000000  0.0000000000000000  0.8580100000000001
  0.0000000000000000  0.0000000000000000  0.1419900000000000
  0.6666700000000000  0.3333300000000000  0.1913400000000000
  0.6666700000000000  0.3333300000000000  0.4753200000000000
  0.3333300000000000  0.6666700000000000  0.5246800000000000
  0.3333300000000000  0.6666700000000000  0.8086600000000000
  0.0000000000000000  0.0000000000000000  0.5000000000000000
  0.6666600000000000  0.3333400000000000  0.8333300000000000
  0.3333400000000000  0.6666600000000000  0.1666700000000000
  0.0000000000000000  0.0000000000000000  0.7430700000000000
  0.0000000000000000  0.0000000000000000  0.2569300000000000
  0.6666700000000000  0.3333300000000000  0.0764000000000000
  0.6666700000000000  0.3333300000000000  0.5902600000000000
  0.3333300000000000  0.6666700000000000  0.4097400000000000
  0.3333300000000000  0.6666700000000000  0.9236000000000000
