Re Sb Se 
 1.0000000000000000
     3.3435999999999999    0.0000000000000000    0.0000000000000000
    -1.6717999999999993    2.8956425400936490    0.0000000000000000
     0.0000000000000000    0.0000000000000000   11.5808999999999997
 Re  Sb  Se 
   4   2   2
Direct
  0.3122700000000000  0.6877300000000000  0.3512100000000000
  0.6877300000000000  0.3122700000000000  0.6487900000000000
  0.6285500000000001  0.3714500000000000  0.8513799999999999
  0.3714500000000000  0.6285500000000001  0.1486200000000000
  0.0000000000000000  0.0000000000000000  0.0000000000000000
  0.0000000000000000  0.0000000000000000  0.5000000000000000
  0.3222599999999999  0.6777400000000000  0.7499400000000001
  0.6777400000000000  0.3222600000000000  0.2500600000000000
