Cu  S Sb 
 1.0000000000000000
     3.2690000000000001    0.0000000000000000    0.0000000000000000
    -1.6344999999999994    2.8310370449713305    0.0000000000000000
     0.0000000000000000    0.0000000000000000    8.5470000000000006
 Cu  S   Sb 
   2   2   1
Direct
  0.6662700000000000  0.3331300000000000  0.7602000000000000
  0.3337299999999999  0.6668700000000000  0.2398000000000000
  0.6261400000000000  0.3130700000000000  0.5054100000000000
  0.3738600000000001  0.6869300000000002  0.4945900000000000
  0.0000000000000000  0.0000000000000000  0.0000000000000000
