Zr  S Al 
 1.0000000000000000
     3.2709999999999999    0.0000000000000000    0.0000000000000000
    -1.6354999999999993    2.8327690957788989    0.0000000000000000
     0.0000000000000000    0.0000000000000000   25.4780000000000015
 Zr  S   Al 
   6   6   3
Direct
  0.9999999999999997  0.9999999999999998  0.5683600000000000
  0.0000000000000000  0.0000000000000000  0.4316400000000000
  0.6666700000000000  0.3333300000000000  0.9016899999999998
  0.6666700000000000  0.3333300000000000  0.7649700000000000
  0.3333300000000000  0.6666700000000000  0.2350300000000000
  0.3333300000000000  0.6666700000000000  0.0983100000000000
  0.0000000000000000  0.0000000000000000  0.7921300000000000
  0.9999999999999997  0.9999999999999998  0.2078700000000000
  0.6666700000000000  0.3333300000000000  0.1254700000000000
  0.6666700000000000  0.3333300000000000  0.5412000000000000
  0.3333300000000000  0.6666700000000000  0.4587999999999999
  0.3333300000000000  0.6666700000000000  0.8745299999999999
  0.0000000000000000  0.0000000000000000  0.0000000000000000
  0.6666600000000000  0.3333400000000000  0.3333300000000000
  0.3333400000000000  0.6666600000000000  0.6666699999999999
