Ag  S Al 
 1.0000000000000000
     3.2690000000000001    0.0000000000000000    0.0000000000000000
    -1.6344999999999994    2.8310370449713305    0.0000000000000000
     0.0000000000000000    0.0000000000000000    8.5470000000000006
 Ag  S   Al 
   2   2   1
Direct
  0.8485599999999998  0.4242800000000000  0.7754400000000000
  0.1514399999999999  0.5757200000000000  0.2245600000000000
  0.6976800000000000  0.3488400000000000  0.4621900000000000
  0.3023200000000000  0.6511600000000000  0.5378100000000000
  0.0000000000000000  0.0000000000000000  0.0000000000000000
