Hg  S  B 
 1.0000000000000000
     3.2709999999999999    0.0000000000000000    0.0000000000000000
    -1.6354999999999993    2.8327690957788989    0.0000000000000000
     0.0000000000000000    0.0000000000000000   25.4780000000000015
 Hg  S   B  
   6   6   3
Direct
  0.9189800000000000  0.0810200000000000  0.5890900000000000
  0.0810200000000000  0.9189800000000000  0.4109100000000000
  0.5353100000000000  0.4646899999999999  0.9233600000000000
  0.5405699999999998  0.4594299999999999  0.7327399999999999
  0.4594300000000000  0.5405700000000000  0.2672600000000000
  0.4646900000000000  0.5353100000000000  0.0766400000000000
  0.8893100000000000  0.1106900000000000  0.8308700000000000
  0.1106900000000000  0.8893100000000000  0.1691300000000000
  0.8137600000000000  0.1862400000000000  0.1684600000000000
  0.6886600000000000  0.3113400000000000  0.5074200000000000
  0.3113399999999999  0.6886599999999999  0.4925800000000000
  0.1862399999999999  0.8137599999999998  0.8315399999999999
  0.0000000000000000  0.0000000000000000  0.0000000000000000
  0.8654500000000001  0.1345500000000000  0.3391100000000000
  0.1345500000000000  0.8654500000000001  0.6608899999999998
