Ca Os  N  S 
 1.0000000000000000
     3.3029999999999999    0.0000000000000000    0.0000000000000000
    -1.6514999999999991    2.8604819087000011    0.0000000000000000
     0.0000000000000000    0.0000000000000000   25.8299999999999983
 Ca  Os  N   S  
   3   6   3   6
Direct
  0.0000000000000000  0.0000000000000000  0.0000000000000000
  0.6666900000000000  0.3333100000000000  0.3251000000000000
  0.3333099999999999  0.6666900000000000  0.6749000000000001
  0.0001100000000000  0.9998899999999999  0.8757400000000000
  0.9998899999999998  0.0001100000000000  0.1242600000000000
  0.6667600000000000  0.3332400000000000  0.2091700000000000
  0.6666299999999999  0.3333700000000000  0.4574200000000000
  0.3333700000000000  0.6666299999999999  0.5425800000000000
  0.3332400000000000  0.6667600000000000  0.7908300000000000
  0.0000000000000000  0.0000000000000000  0.5000000000000000
  0.6667100000000000  0.3332900000000000  0.8358900000000000
  0.3332900000000000  0.6667100000000000  0.1641100000000000
  0.9998800000000000  0.0001200000000000  0.7551800000000000
  0.0001200000000000  0.9998800000000001  0.2448200000000000
  0.6665400000000000  0.3334600000000000  0.0890000000000000
  0.6667100000000000  0.3332900000000000  0.5783400000000000
  0.3332900000000000  0.6667100000000000  0.4216600000000000
  0.3334600000000000  0.6665400000000000  0.9110000000000001
