Cu Sc  C  S
 1.0000000000000000
     3.3029999999999999    0.0000000000000000    0.0000000000000000
    -1.6514999999999991    2.8604819087000011    0.0000000000000000
     0.0000000000000000    0.0000000000000000   25.8299999999999983
 Cu  Sc  C   S
   3   6   3   6
Direct
  0.0000000000000000  0.0000000000000000  0.0000000000000000
  0.6666700000000000  0.3333300000000000  0.3333300000000001
  0.3333300000000000  0.6666700000000000  0.6666700000000001
  0.0000000000000000  0.0000000000000000  0.8814100000000000
  0.0000000000000000  0.0000000000000000  0.1185900000000000
  0.6666700000000000  0.3333300000000000  0.2147400000000000
  0.6666700000000000  0.3333300000000000  0.4519200000000000
  0.3333300000000000  0.6666700000000000  0.5480800000000000
  0.3333300000000000  0.6666700000000000  0.7852600000000001
  0.0000000000000000  0.0000000000000000  0.5000000000000000
  0.6666700000000000  0.3333300000000000  0.8333300000000000
  0.3333300000000000  0.6666700000000000  0.1666700000000000
  0.0000000000000000  0.0000000000000000  0.7207700000000000
  0.0000000000000000  0.0000000000000000  0.2792300000000000
  0.6666700000000000  0.3333300000000000  0.0541100000000000
  0.6666700000000000  0.3333300000000000  0.6125600000000000
  0.3333300000000000  0.6666700000000000  0.3874400000000000
  0.3333300000000000  0.6666700000000000  0.9458900000000000
