Co  S Ge 
 1.0000000000000000
     3.2690000000000001    0.0000000000000000    0.0000000000000000
    -1.6344999999999994    2.8310370449713305    0.0000000000000000
     0.0000000000000000    0.0000000000000000    8.5470000000000006
 Co  S   Ge 
   2   2   1
Direct
  0.5278600000000000  0.2639300000000000  0.7905799999999999
  0.4721399999999999  0.7360700000000000  0.2094200000000000
  0.4824899999999999  0.2412500000000000  0.3397500000000000
  0.5175100000000000  0.7587500000000001  0.6602500000000000
  0.0000000000000000  0.0000000000000000  0.0000000000000000
