Co  W  C Se
 1.0000000000000000
     3.3029999999999999    0.0000000000000000    0.0000000000000000
    -1.6514999999999993    2.8604819087000011    0.0000000000000000
     0.0000000000000000    0.0000000000000000   25.8299999999999983
 Co  W   C   Se
   3   6   3   6
Direct
  0.0000000000000000  0.0000000000000000  0.0000000000000000
  0.6666499999999999  0.3333500000000000  0.3422700000000000
  0.3333499999999999  0.6666500000000000  0.6577300000000000
  0.0000000000000000  0.0000000000000000  0.8879100000000000
  0.0000000000000000  0.0000000000000000  0.1120900000000000
  0.6666700000000000  0.3333300000000000  0.1700200000000000
  0.6666700000000000  0.3333300000000000  0.4716000000000001
  0.3333300000000000  0.6666700000000000  0.5284000000000000
  0.3333300000000000  0.6666700000000000  0.8299800000000001
  0.0000000000000000  0.0000000000000000  0.5000000000000000
  0.6666700000000000  0.3333300000000000  0.8392400000000000
  0.3333300000000000  0.6666700000000000  0.1607600000000000
  0.0000300000000000  0.9999700000000000  0.7044800000000000
  0.9999699999999998  0.0000300000000000  0.2955200000000000
  0.6666700000000000  0.3333300000000000  0.0572300000000000
  0.6666600000000000  0.3333400000000000  0.5919800000000000
  0.3333400000000000  0.6666600000000000  0.4080200000000000
  0.3333300000000000  0.6666700000000000  0.9427700000000002
