Cr  V  N Se 
 1.0000000000000000
     3.3029999999999999    0.0000000000000000    0.0000000000000000
    -1.6514999999999991    2.8604819087000011    0.0000000000000000
     0.0000000000000000    0.0000000000000000   25.8299999999999983
 Cr  V   N   Se 
   3   6   3   6
Direct
  0.0000000000000000  0.0000000000000000  0.0000000000000000
  0.6347600000000000  0.3652400000000000  0.3246300000000000
  0.3652399999999999  0.6347600000000000  0.6753700000000000
  0.8383099999999998  0.1616900000000000  0.8695800000000000
  0.1616900000000000  0.8383100000000000  0.1304200000000000
  0.8319899999999998  0.1680100000000000  0.1839200000000000
  0.6667900000000000  0.3332100000000000  0.4771600000000000
  0.3332100000000000  0.6667900000000000  0.5228400000000000
  0.1680099999999999  0.8319900000000000  0.8160800000000000
  0.0000000000000000  0.0000000000000000  0.5000000000000000
  0.5044900000000000  0.4955100000000000  0.8576300000000000
  0.4955100000000000  0.5044900000000000  0.1423700000000000
  0.8357899999999999  0.1642100000000000  0.7695100000000000
  0.1642100000000000  0.8357900000000000  0.2304900000000000
  0.6714599999999999  0.3285400000000000  0.0465100000000000
  0.6967300000000000  0.3032700000000000  0.6463600000000000
  0.3032700000000000  0.6967300000000000  0.3536400000000000
  0.3285400000000000  0.6714599999999999  0.9534899999999999
