Mn Te Ge 
 1.0000000000000000
     3.2690000000000001    0.0000000000000000    0.0000000000000000
    -1.6344999999999994    2.8310370449713305    0.0000000000000000
     0.0000000000000000    0.0000000000000000    8.5470000000000006
 Mn  Te  Ge 
   2   2   1
Direct
  0.6052200000000000  0.3026100000000000  0.8640600000000001
  0.3947799999999999  0.6973900000000000  0.1359400000000000
  0.6230799999999997  0.3115400000000000  0.3062800000000000
  0.3769199999999999  0.6884600000000000  0.6937200000000000
  0.0000000000000000  0.0000000000000000  0.0000000000000000
