Mg Mo  C Te
 1.0000000000000000
     3.3029999999999999    0.0000000000000000    0.0000000000000000
    -1.6514999999999993    2.8604819087000011    0.0000000000000000
     0.0000000000000000    0.0000000000000000   25.8299999999999983
 Mg  Mo  C   Te
   3   6   3   6
Direct
  0.0000000000000000  0.0000000000000000  0.0000000000000000
  0.6666700000000000  0.3333300000000000  0.3361500000000000
  0.3333300000000000  0.6666700000000000  0.6638500000000001
  0.0000000000000000  0.0000000000000000  0.8576700000000003
  0.0000000000000000  0.0000000000000000  0.1423300000000000
  0.6666600000000000  0.3333400000000000  0.2047700000000000
  0.6665900000000000  0.3334100000000000  0.4735500000000000
  0.3334100000000000  0.6665900000000000  0.5264500000000000
  0.3333400000000000  0.6666600000000000  0.7952300000000000
  0.0000000000000000  0.0000000000000000  0.5000000000000000
  0.6666700000000000  0.3333300000000000  0.8069600000000001
  0.3333300000000000  0.6666700000000000  0.1930400000000000
  0.9999800000000000  0.0000200000000000  0.7265500000000000
  0.0000200000000001  0.9999800000000001  0.2734500000000000
  0.6666600000000000  0.3333400000000000  0.0897200000000000
  0.6667500000000000  0.3332500000000000  0.5891000000000000
  0.3332500000000000  0.6667500000000000  0.4109000000000000
  0.3333400000000000  0.6666600000000000  0.9102800000000000
