Zr Sn  S 
 1.0000000000000000
     3.3435999999999999    0.0000000000000000    0.0000000000000000
    -1.6717999999999993    2.8956425400936490    0.0000000000000000
     0.0000000000000000    0.0000000000000000   11.5808999999999997
 Zr  Sn  S  
   4   2   2
Direct
  0.3333300000000000  0.6666699999999999  0.3726100000000001
  0.6666700000000000  0.3333300000000000  0.6273900000000000
  0.6666700000000000  0.3333300000000000  0.8224100000000000
  0.3333300000000000  0.6666699999999999  0.1775900000000000
  0.0000000000000000  0.0000000000000000  0.0000000000000000
  0.0000000000000000  0.0000000000000000  0.5000000000000000
  0.3333400000000000  0.6666599999999999  0.7549000000000000
  0.6666600000000000  0.3333400000000000  0.2451000000000000
