Cr Re  C Se
 1.0000000000000000
     3.3029999999999999    0.0000000000000000    0.0000000000000000
    -1.6514999999999993    2.8604819087000011    0.0000000000000000
     0.0000000000000000    0.0000000000000000   25.8299999999999983
 Cr  Re  C   Se
   3   6   3   6
Direct
  0.0000000000000000  0.0000000000000000  0.0000000000000000
  0.0046100000000000  0.9953900000000000  0.3011800000000000
  0.9953900000000000  0.0046100000000000  0.6988200000000000
  0.7991400000000000  0.2008600000000000  0.8804300000000002
  0.2008600000000000  0.7991400000000001  0.1195700000000000
  0.9824299999999999  0.0175700000000000  0.2126600000000000
  0.7246100000000000  0.2753900000000000  0.4683800000000000
  0.2753900000000000  0.7246100000000000  0.5316200000000000
  0.0175700000000000  0.9824300000000000  0.7873400000000002
  0.0000000000000000  0.0000000000000000  0.5000000000000000
  0.4819099999999999  0.5180900000000001  0.8642600000000000
  0.5180899999999999  0.4819099999999999  0.1357400000000000
  0.6797700000000000  0.3202300000000000  0.7445500000000000
  0.3202300000000000  0.6797700000000000  0.2554500000000000
  0.6807400000000000  0.3192600000000000  0.0479600000000000
  0.4248899999999999  0.5751100000000000  0.6440700000000000
  0.5751100000000001  0.4248900000000000  0.3559300000000000
  0.3192600000000000  0.6807400000000000  0.9520400000000002
