Pt  S Ga 
 1.0000000000000000
     3.2709999999999999    0.0000000000000000    0.0000000000000000
    -1.6354999999999993    2.8327690957788989    0.0000000000000000
     0.0000000000000000    0.0000000000000000   25.4780000000000015
 Pt  S   Ga 
   6   6   3
Direct
  0.0002299999999999  0.9997699999999998  0.5622800000000000
  0.9997700000000000  0.0002300000000000  0.4377199999999999
  0.6667000000000000  0.3333000000000000  0.8897000000000000
  0.6667000000000000  0.3333000000000000  0.7651400000000000
  0.3332999999999999  0.6667000000000000  0.2348600000000000
  0.3332999999999999  0.6667000000000000  0.1103000000000000
  0.9999900000000000  0.0000100000000000  0.8225900000000000
  0.0000100000000000  0.9999899999999999  0.1774100000000000
  0.6666700000000000  0.3333300000000000  0.1656899999999999
  0.6666600000000000  0.3333400000000000  0.5074300000000000
  0.3333400000000000  0.6666600000000000  0.4925700000000000
  0.3333300000000000  0.6666700000000000  0.8343100000000000
  0.0000000000000000  0.0000000000000000  0.0000000000000000
  0.6666600000000000  0.3333400000000000  0.3330800000000000
  0.3333400000000000  0.6666600000000000  0.6669200000000000
