Ni Ir  C Se
 1.0000000000000000
     3.3029999999999999    0.0000000000000000    0.0000000000000000
    -1.6514999999999993    2.8604819087000011    0.0000000000000000
     0.0000000000000000    0.0000000000000000   25.8299999999999983
 Ni  Ir  C   Se
   3   6   3   6
Direct
  0.0000000000000000  0.0000000000000000  0.0000000000000000
  0.6666700000000000  0.3333300000000000  0.3333300000000001
  0.3333300000000000  0.6666700000000000  0.6666700000000001
  0.0000000000000000  0.0000000000000000  0.8762400000000001
  0.0000000000000000  0.0000000000000000  0.1237600000000000
  0.6666700000000000  0.3333300000000000  0.2095600000000000
  0.6666700000000000  0.3333300000000000  0.4571000000000000
  0.3333300000000000  0.6666700000000000  0.5429000000000000
  0.3333300000000000  0.6666700000000000  0.7904400000000000
  0.0000000000000000  0.0000000000000000  0.5000000000000000
  0.6666700000000000  0.3333300000000000  0.8333300000000000
  0.3333300000000000  0.6666700000000000  0.1666700000000000
  0.0000000000000000  0.0000000000000000  0.7346800000000000
  0.0000000000000000  0.0000000000000000  0.2653200000000000
  0.6666700000000000  0.3333300000000000  0.0680100000000000
  0.6666700000000000  0.3333300000000000  0.5986600000000000
  0.3333300000000000  0.6666700000000000  0.4013400000000000
  0.3333300000000000  0.6666700000000000  0.9319900000000000
