Cu Te Ga 
 1.0000000000000000
     3.2709999999999999    0.0000000000000000    0.0000000000000000
    -1.6354999999999993    2.8327690957788989    0.0000000000000000
     0.0000000000000000    0.0000000000000000   25.4780000000000015
 Cu  Te  Ga 
   6   6   3
Direct
  0.9951700000000000  0.0048300000000000  0.6019600000000001
  0.0048300000000000  0.9951700000000000  0.3980400000000000
  0.6705500000000000  0.3294500000000000  0.9397999999999999
  0.6424500000000000  0.3575499999999999  0.7213800000000000
  0.3575500000000000  0.6424500000000000  0.2786200000000000
  0.3294500000000000  0.6705500000000000  0.0602000000000000
  0.0260800000000000  0.9739199999999999  0.7906400000000000
  0.9739199999999998  0.0260800000000000  0.2093600000000000
  0.6842999999999999  0.3156999999999999  0.1287700000000000
  0.6958099999999999  0.3041900000000000  0.5352100000000000
  0.3041900000000000  0.6958099999999999  0.4647900000000000
  0.3156999999999999  0.6842999999999999  0.8712299999999998
  0.0000000000000000  0.0000000000000000  0.0000000000000000
  0.6936099999999999  0.3063899999999999  0.3370900000000000
  0.3063900000000000  0.6936099999999999  0.6629099999999998
