Pt Se Al 
 1.0000000000000000
     3.2709999999999999    0.0000000000000000    0.0000000000000000
    -1.6354999999999993    2.8327690957788989    0.0000000000000000
     0.0000000000000000    0.0000000000000000   25.4780000000000015
 Pt  Se  Al 
   6   6   3
Direct
  0.9999999999999997  0.9999999999999998  0.6159900000000000
  0.0000000000000000  0.0000000000000000  0.3840100000000000
  0.6666700000000000  0.3333300000000000  0.9493300000000000
  0.6666700000000000  0.3333300000000000  0.7173400000000000
  0.3333300000000000  0.6666700000000000  0.2826600000000000
  0.3333300000000000  0.6666700000000000  0.0506700000000000
  0.0000000000000000  0.0000000000000000  0.7937600000000000
  0.9999999999999997  0.9999999999999998  0.2062400000000000
  0.6666700000000000  0.3333300000000000  0.1270900000000000
  0.6666700000000000  0.3333300000000000  0.5395700000000000
  0.3333300000000000  0.6666700000000000  0.4604300000000000
  0.3333300000000000  0.6666700000000000  0.8729100000000000
  0.0000000000000000  0.0000000000000000  0.0000000000000000
  0.6666700000000000  0.3333300000000000  0.3333300000000000
  0.3333300000000000  0.6666700000000000  0.6666699999999999
