Mn Ti  N Se 
 1.0000000000000000
     3.3029999999999999    0.0000000000000000    0.0000000000000000
    -1.6514999999999991    2.8604819087000011    0.0000000000000000
     0.0000000000000000    0.0000000000000000   25.8299999999999983
 Mn  Ti  N   Se 
   3   6   3   6
Direct
  0.0000000000000000  0.0000000000000000  0.0000000000000000
  0.6663700000000000  0.3336300000000000  0.3183200000000000
  0.3336300000000000  0.6663700000000000  0.6816800000000000
  0.0010400000000001  0.9989600000000001  0.8298200000000000
  0.9989599999999997  0.0010400000000000  0.1701800000000000
  0.6469100000000000  0.3530900000000001  0.2278200000000000
  0.6668400000000000  0.3331600000000000  0.4754600000000000
  0.3331600000000000  0.6668400000000000  0.5245400000000000
  0.3530900000000000  0.6469100000000000  0.7721800000000000
  0.0000000000000000  0.0000000000000000  0.5000000000000000
  0.6669500000000000  0.3330500000000000  0.8280200000000001
  0.3330500000000000  0.6669500000000000  0.1719800000000000
  0.0115100000000000  0.9884900000000000  0.7349700000000000
  0.9884900000000000  0.0115100000000000  0.2650300000000000
  0.6673100000000000  0.3326900000000000  0.0486200000000000
  0.6943400000000000  0.3056600000000000  0.6353000000000001
  0.3056600000000000  0.6943400000000000  0.3647000000000000
  0.3326899999999999  0.6673100000000000  0.9513800000000000
