Li  V  N  S 
 1.0000000000000000
     3.3029999999999999    0.0000000000000000    0.0000000000000000
    -1.6514999999999991    2.8604819087000011    0.0000000000000000
     0.0000000000000000    0.0000000000000000   25.8299999999999983
 Li  V   N   S  
   3   6   3   6
Direct
  0.0000000000000000  0.0000000000000000  0.0000000000000000
  0.6666700000000000  0.3333300000000000  0.3333300000000001
  0.3333300000000000  0.6666700000000000  0.6666700000000001
  0.0000000000000000  0.0000000000000000  0.8607100000000000
  0.0000000000000000  0.0000000000000000  0.1392900000000000
  0.6666700000000000  0.3333300000000000  0.1939600000000000
  0.6666700000000000  0.3333300000000000  0.4726700000000000
  0.3333300000000000  0.6666700000000000  0.5273300000000000
  0.3333300000000000  0.6666700000000000  0.8060400000000000
  0.0000000000000000  0.0000000000000000  0.5000000000000000
  0.6666700000000000  0.3333300000000000  0.8333900000000000
  0.3333300000000000  0.6666700000000000  0.1666100000000000
  0.0000000000000000  0.0000000000000000  0.7543200000000001
  0.0000000000000000  0.0000000000000000  0.2456800000000000
  0.6666700000000000  0.3333300000000000  0.0875900000000000
  0.6666700000000000  0.3333300000000000  0.5790500000000000
  0.3333300000000000  0.6666700000000000  0.4209500000000000
  0.3333300000000000  0.6666700000000000  0.9124100000000001
