Cu Te Pb 
 1.0000000000000000
     3.2709999999999999    0.0000000000000000    0.0000000000000000
    -1.6354999999999993    2.8327690957788989    0.0000000000000000
     0.0000000000000000    0.0000000000000000   25.4780000000000015
 Cu  Te  Pb 
   6   6   3
Direct
  0.9900900000000000  0.0099100000000000  0.6024300000000000
  0.0099100000000000  0.9900900000000000  0.3975699999999999
  0.6934500000000000  0.3065500000000000  0.9310600000000000
  0.6550600000000000  0.3449400000000000  0.7392899999999999
  0.3449400000000000  0.6550600000000000  0.2607100000000000
  0.3065499999999999  0.6934499999999999  0.0689400000000000
  0.0750299999999999  0.9249699999999997  0.8013499999999998
  0.9249699999999997  0.0750300000000000  0.1986500000000000
  0.6364499999999998  0.3635500000000000  0.1303600000000000
  0.6947500000000000  0.3052500000000000  0.5371600000000000
  0.3052500000000000  0.6947499999999999  0.4628400000000000
  0.3635499999999999  0.6364500000000000  0.8696399999999997
  0.0000000000000000  0.0000000000000000  0.0000000000000000
  0.7061199999999999  0.2938800000000000  0.3282200000000000
  0.2938799999999999  0.7061200000000000  0.6717800000000000
