Mo  S Ga 
 1.0000000000000000
     3.2709999999999999    0.0000000000000000    0.0000000000000000
    -1.6354999999999993    2.8327690957788989    0.0000000000000000
     0.0000000000000000    0.0000000000000000   25.4780000000000015
 Mo  S   Ga 
   6   6   3
Direct
  0.9999800000000000  0.0000200000000000  0.5760200000000000
  0.0000199999999999  0.9999799999999998  0.4239800000000000
  0.6667000000000000  0.3333000000000000  0.9093599999999998
  0.6666800000000001  0.3333199999999999  0.7573100000000000
  0.3333199999999999  0.6666800000000001  0.2426900000000000
  0.3332999999999999  0.6667000000000000  0.0906400000000000
  0.0000199999999999  0.9999799999999998  0.7841900000000001
  0.9999800000000000  0.0000200000000000  0.2158100000000000
  0.6666299999999999  0.3333700000000000  0.1175200000000000
  0.6666500000000000  0.3333500000000000  0.5491500000000000
  0.3333499999999999  0.6666499999999999  0.4508499999999999
  0.3333699999999999  0.6666299999999997  0.8824800000000000
  0.0000000000000000  0.0000000000000000  0.0000000000000000
  0.6666600000000000  0.3333400000000000  0.3333300000000000
  0.3333400000000000  0.6666600000000000  0.6666699999999999
