Li Zr  N Se 
 1.0000000000000000
     3.3029999999999999    0.0000000000000000    0.0000000000000000
    -1.6514999999999993    2.8604819087000011    0.0000000000000000
     0.0000000000000000    0.0000000000000000   25.8299999999999983
 Li  Zr  N   Se 
   3   6   3   6
Direct
  0.0000000000000000  0.0000000000000000  0.0000000000000000
  0.7022600000000000  0.2977400000000000  0.3361300000000000
  0.2977400000000001  0.7022600000000001  0.6638700000000000
  0.9680000000000000  0.0320000000000000  0.8535600000000000
  0.0320000000000000  0.9680000000000000  0.1464400000000000
  0.7166299999999998  0.2833700000000000  0.2082400000000000
  0.6668500000000001  0.3331500000000000  0.4702700000000000
  0.3331500000000000  0.6668500000000001  0.5297300000000000
  0.2833700000000001  0.7166300000000001  0.7917600000000001
  0.0000000000000000  0.0000000000000000  0.5000000000000000
  0.6468000000000000  0.3532000000000000  0.8375400000000000
  0.3531999999999999  0.6468000000000000  0.1624600000000000
  0.9696800000000000  0.0303200000000000  0.7454200000000000
  0.0303200000000000  0.9696800000000000  0.2545800000000000
  0.5468600000000001  0.4531400000000000  0.0793500000000000
  0.6679699999999998  0.3320300000000000  0.5935200000000000
  0.3320299999999999  0.6679700000000000  0.4064800000000000
  0.4531399999999999  0.5468600000000000  0.9206500000000000
