Ag  S Bi 
 1.0000000000000000
     3.2709999999999999    0.0000000000000000    0.0000000000000000
    -1.6354999999999993    2.8327690957788989    0.0000000000000000
     0.0000000000000000    0.0000000000000000   25.4780000000000015
 Ag  S   Bi 
   6   6   3
Direct
  0.0033599999999999  0.9966399999999999  0.5706900000000000
  0.9966400000000000  0.0033600000000000  0.4293100000000000
  0.6729000000000001  0.3270999999999999  0.9040300000000000
  0.6626700000000000  0.3373300000000000  0.7623300000000000
  0.3373300000000000  0.6626700000000000  0.2376699999999999
  0.3271000000000000  0.6729000000000001  0.0959700000000000
  0.0150999999999999  0.9848999999999999  0.8329399999999999
  0.9849000000000000  0.0151000000000000  0.1670600000000000
  0.6787800000000000  0.3212200000000000  0.1665600000000000
  0.6535800000000000  0.3464200000000000  0.5003200000000000
  0.3464200000000000  0.6535799999999999  0.4996800000000000
  0.3212200000000000  0.6787799999999999  0.8334400000000000
  0.0000000000000000  0.0000000000000000  0.0000000000000000
  0.6735200000000000  0.3264799999999999  0.3342500000000000
  0.3264799999999999  0.6735199999999999  0.6657500000000000
