Cu Os  N  S 
 1.0000000000000000
     3.3029999999999999    0.0000000000000000    0.0000000000000000
    -1.6514999999999991    2.8604819087000011    0.0000000000000000
     0.0000000000000000    0.0000000000000000   25.8299999999999983
 Cu  Os  N   S  
   3   6   3   6
Direct
  0.0000000000000000  0.0000000000000000  0.0000000000000000
  0.6666700000000000  0.3333300000000000  0.3333500000000000
  0.3333300000000000  0.6666700000000000  0.6666500000000000
  0.0000100000000001  0.9999900000000002  0.8767700000000000
  0.9999899999999998  0.0000100000000000  0.1232300000000000
  0.6666800000000001  0.3333200000000000  0.2100900000000000
  0.6666600000000000  0.3333400000000000  0.4565700000000000
  0.3333400000000000  0.6666600000000000  0.5434300000000000
  0.3333200000000000  0.6666800000000001  0.7899100000000001
  0.0000000000000000  0.0000000000000000  0.5000000000000000
  0.6666700000000000  0.3333300000000000  0.8334900000000001
  0.3333300000000000  0.6666700000000000  0.1665100000000000
  0.9999800000000000  0.0000200000000000  0.7533300000000001
  0.0000200000000001  0.9999800000000001  0.2466700000000000
  0.6666499999999999  0.3333500000000000  0.0866400000000000
  0.6666800000000001  0.3333200000000000  0.5800100000000000
  0.3333200000000000  0.6666800000000001  0.4199900000000000
  0.3333499999999999  0.6666500000000000  0.9133599999999999
