Ru Se Sn 
 1.0000000000000000
     3.2709999999999999    0.0000000000000000    0.0000000000000000
    -1.6354999999999993    2.8327690957788989    0.0000000000000000
     0.0000000000000000    0.0000000000000000   25.4780000000000015
 Ru  Se  Sn 
   6   6   3
Direct
  0.9999700000000000  0.0000300000000000  0.5895100000000000
  0.0000300000000000  0.9999700000000000  0.4104900000000000
  0.6666800000000001  0.3333199999999999  0.9228600000000000
  0.6666399999999999  0.3333600000000000  0.7437999999999998
  0.3333600000000000  0.6666399999999999  0.2562000000000000
  0.3333199999999999  0.6666800000000001  0.0771400000000000
  0.9999200000000000  0.0000800000000000  0.7870800000000000
  0.0000799999999998  0.9999199999999998  0.2129200000000000
  0.6665999999999999  0.3334000000000000  0.1204100000000000
  0.6665700000000000  0.3334300000000000  0.5462300000000000
  0.3334300000000000  0.6665700000000000  0.4537700000000000
  0.3334000000000000  0.6666000000000000  0.8795900000000000
  0.0000000000000000  0.0000000000000000  0.0000000000000000
  0.6667299999999999  0.3332700000000000  0.3333500000000000
  0.3332700000000000  0.6667299999999999  0.6666500000000000
