Mo Se  B 
 1.0000000000000000
     3.2709999999999999    0.0000000000000000    0.0000000000000000
    -1.6354999999999993    2.8327690957788989    0.0000000000000000
     0.0000000000000000    0.0000000000000000   25.4780000000000015
 Mo  Se  B  
   6   6   3
Direct
  0.9999999999999997  0.9999999999999998  0.6379400000000000
  0.0000000000000000  0.0000000000000000  0.3620600000000000
  0.6666700000000000  0.3333300000000000  0.9712800000000000
  0.6666700000000000  0.3333300000000000  0.6953699999999998
  0.3333300000000000  0.6666700000000000  0.3046300000000000
  0.3333300000000000  0.6666700000000000  0.0287200000000000
  0.9999900000000000  0.0000100000000000  0.7688000000000000
  0.0000100000000000  0.9999899999999999  0.2312000000000000
  0.6666900000000000  0.3333099999999999  0.1021300000000000
  0.6666800000000001  0.3333199999999999  0.5645400000000000
  0.3333199999999999  0.6666800000000001  0.4354600000000000
  0.3333100000000000  0.6666900000000000  0.8978699999999999
  0.0000000000000000  0.0000000000000000  0.0000000000000000
  0.6666700000000000  0.3333300000000000  0.3333300000000000
  0.3333300000000000  0.6666700000000000  0.6666699999999999
