Cr Ni  C  S
 1.0000000000000000
     3.3029999999999999    0.0000000000000000    0.0000000000000000
    -1.6514999999999991    2.8604819087000011    0.0000000000000000
     0.0000000000000000    0.0000000000000000   25.8299999999999983
 Cr  Ni  C   S
   3   6   3   6
Direct
  0.0000000000000000  0.0000000000000000  0.0000000000000000
  0.6666700000000000  0.3333300000000000  0.3333700000000000
  0.3333300000000000  0.6666700000000000  0.6666299999999999
  0.0000000000000000  0.0000000000000000  0.8622700000000000
  0.0000000000000000  0.0000000000000000  0.1377300000000000
  0.6666700000000000  0.3333300000000000  0.1958100000000000
  0.6666700000000000  0.3333300000000000  0.4710300000000000
  0.3333300000000000  0.6666700000000000  0.5289700000000001
  0.3333300000000000  0.6666700000000000  0.8041900000000000
  0.0000000000000000  0.0000000000000000  0.5000000000000000
  0.6666700000000000  0.3333300000000000  0.8331400000000000
  0.3333300000000000  0.6666700000000000  0.1668600000000000
  0.0000300000000000  0.9999700000000000  0.7208800000000000
  0.9999699999999998  0.0000300000000000  0.2791200000000000
  0.6666999999999998  0.3333000000000000  0.0542800000000000
  0.6666400000000000  0.3333600000000000  0.6124200000000000
  0.3333600000000000  0.6666400000000000  0.3875800000000000
  0.3332999999999999  0.6667000000000000  0.9457200000000002
