Pd Te Sn 
 1.0000000000000000
     3.2690000000000001    0.0000000000000000    0.0000000000000000
    -1.6344999999999994    2.8310370449713305    0.0000000000000000
     0.0000000000000000    0.0000000000000000    8.5470000000000006
 Pd  Te  Sn 
   2   2   1
Direct
  0.6903600000000000  0.3451800000000000  0.7991900000000000
  0.3096400000000000  0.6548200000000000  0.2008100000000000
  0.6131600000000000  0.3065800000000000  0.4020500000000000
  0.3868400000000000  0.6934200000000001  0.5979500000000000
  0.0000000000000000  0.0000000000000000  0.0000000000000000
