Ca Hf  N  S 
 1.0000000000000000
     3.3029999999999999    0.0000000000000000    0.0000000000000000
    -1.6514999999999991    2.8604819087000011    0.0000000000000000
     0.0000000000000000    0.0000000000000000   25.8299999999999983
 Ca  Hf  N   S  
   3   6   3   6
Direct
  0.0000000000000000  0.0000000000000000  0.0000000000000000
  0.6684099999999998  0.3315900000000000  0.3234300000000000
  0.3315899999999999  0.6684099999999999  0.6765700000000001
  0.0117500000000001  0.9882500000000001  0.8649400000000000
  0.9882500000000000  0.0117500000000000  0.1350600000000000
  0.6792599999999999  0.3207400000000000  0.2021100000000000
  0.6764899999999998  0.3235100000000000  0.4684200000000000
  0.3235099999999999  0.6764900000000000  0.5315800000000001
  0.3207399999999999  0.6792600000000000  0.7978900000000001
  0.0000000000000000  0.0000000000000000  0.5000000000000000
  0.6499900000000001  0.3500100000000000  0.8120900000000000
  0.3500100000000000  0.6499900000000000  0.1879100000000000
  0.9988100000000000  0.0011900000000000  0.7027600000000001
  0.0011900000000001  0.9988100000000001  0.2972400000000000
  0.6661599999999998  0.3338400000000000  0.1014800000000000
  0.7243300000000000  0.2756700000000000  0.5861200000000000
  0.2756700000000000  0.7243300000000000  0.4138800000000001
  0.3338400000000000  0.6661600000000000  0.8985200000000000
