Na Mn  C Se
 1.0000000000000000
     3.3029999999999999    0.0000000000000000    0.0000000000000000
    -1.6514999999999991    2.8604819087000011    0.0000000000000000
     0.0000000000000000    0.0000000000000000   25.8299999999999983
 Na  Mn  C   Se
   3   6   3   6
Direct
  0.0000000000000000  0.0000000000000000  0.0000000000000000
  0.6666700000000000  0.3333300000000000  0.3333300000000001
  0.3333300000000000  0.6666700000000000  0.6666700000000001
  0.0000000000000000  0.0000000000000000  0.8649100000000000
  0.0000000000000000  0.0000000000000000  0.1350900000000000
  0.6666700000000000  0.3333300000000000  0.1982400000000000
  0.6666700000000000  0.3333300000000000  0.4684300000000001
  0.3333300000000000  0.6666700000000000  0.5315700000000000
  0.3333300000000000  0.6666700000000000  0.8017600000000000
  0.0000000000000000  0.0000000000000000  0.5000000000000000
  0.6666700000000000  0.3333300000000000  0.8333300000000000
  0.3333300000000000  0.6666700000000000  0.1666700000000000
  0.0000000000000000  0.0000000000000000  0.7426800000000000
  0.0000000000000000  0.0000000000000000  0.2573200000000000
  0.6666700000000000  0.3333300000000000  0.0760100000000000
  0.6666600000000000  0.3333400000000000  0.5906600000000000
  0.3333400000000000  0.6666600000000000  0.4093400000000000
  0.3333300000000000  0.6666700000000000  0.9239900000000000
