Cu  S Sn 
 1.0000000000000000
     3.2709999999999999    0.0000000000000000    0.0000000000000000
    -1.6354999999999993    2.8327690957788989    0.0000000000000000
     0.0000000000000000    0.0000000000000000   25.4780000000000015
 Cu  S   Sn 
   6   6   3
Direct
  0.9939300000000000  0.0060700000000000  0.5678100000000000
  0.0060699999999999  0.9939299999999998  0.4321900000000000
  0.6554200000000000  0.3445800000000000  0.9011900000000000
  0.6724900000000000  0.3275100000000000  0.7653999999999999
  0.3275100000000000  0.6724900000000000  0.2346000000000000
  0.3445800000000000  0.6554200000000000  0.0988100000000000
  0.0156800000000000  0.9843199999999998  0.8332200000000000
  0.9843199999999998  0.0156800000000000  0.1667800000000000
  0.6827200000000000  0.3172800000000000  0.1668000000000000
  0.6841300000000000  0.3158699999999999  0.4996300000000000
  0.3158699999999999  0.6841299999999999  0.5003700000000000
  0.3172800000000000  0.6827199999999999  0.8331999999999999
  0.0000000000000000  0.0000000000000000  0.0000000000000000
  0.7167799999999999  0.2832200000000000  0.3333199999999999
  0.2832200000000000  0.7167800000000000  0.6666800000000001
