Zn Co  C  S
 1.0000000000000000
     3.3029999999999999    0.0000000000000000    0.0000000000000000
    -1.6514999999999993    2.8604819087000011    0.0000000000000000
     0.0000000000000000    0.0000000000000000   25.8299999999999983
 Zn  Co  C   S
   3   6   3   6
Direct
  0.0000000000000000  0.0000000000000000  0.0000000000000000
  0.6666700000000000  0.3333300000000000  0.3332200000000001
  0.3333300000000000  0.6666700000000000  0.6667800000000000
  0.9999300000000000  0.0000700000000000  0.8708100000000000
  0.0000700000000001  0.9999300000000001  0.1291900000000000
  0.6667600000000000  0.3332400000000000  0.2040300000000000
  0.6666600000000000  0.3333400000000000  0.4626600000000001
  0.3333400000000000  0.6666600000000000  0.5373400000000000
  0.3332400000000000  0.6667600000000000  0.7959700000000000
  0.0000000000000000  0.0000000000000000  0.5000000000000000
  0.6667799999999998  0.3332200000000000  0.8332500000000002
  0.3332200000000000  0.6667800000000000  0.1667500000000000
  0.9999899999999998  0.0000100000000000  0.7543600000000000
  0.0000100000000001  0.9999900000000002  0.2456400000000000
  0.6666299999999999  0.3333700000000000  0.0876600000000000
  0.6666700000000000  0.3333300000000000  0.5789500000000000
  0.3333300000000000  0.6666700000000000  0.4210500000000000
  0.3333700000000000  0.6666299999999999  0.9123400000000000
