Cu Os  C Te
 1.0000000000000000
     3.3029999999999999    0.0000000000000000    0.0000000000000000
    -1.6514999999999993    2.8604819087000011    0.0000000000000000
     0.0000000000000000    0.0000000000000000   25.8299999999999983
 Cu  Os  C   Te
   3   6   3   6
Direct
  0.0000000000000000  0.0000000000000000  0.0000000000000000
  0.5990100000000000  0.4009900000000000  0.3351200000000000
  0.4009900000000000  0.5990100000000000  0.6648800000000000
  0.9988600000000000  0.0011400000000000  0.8620300000000000
  0.0011400000000000  0.9988600000000001  0.1379700000000000
  0.5558700000000000  0.4441300000000000  0.2120900000000000
  0.7297200000000000  0.2702800000000000  0.4625300000000000
  0.2702799999999999  0.7297200000000000  0.5374700000000000
  0.4441300000000000  0.5558700000000000  0.7879100000000000
  0.0000000000000000  0.0000000000000000  0.5000000000000000
  0.6843300000000000  0.3156700000000000  0.8502900000000000
  0.3156700000000001  0.6843300000000000  0.1497100000000000
  0.1088600000000000  0.8911400000000000  0.7358400000000000
  0.8911400000000000  0.1088600000000000  0.2641600000000000
  0.5142300000000000  0.4857700000000000  0.0745200000000000
  0.6940699999999999  0.3059300000000000  0.5965000000000000
  0.3059299999999999  0.6940700000000000  0.4035000000000000
  0.4857699999999999  0.5142300000000000  0.9254800000000000
