Ru Te Bi 
 1.0000000000000000
     3.2709999999999999    0.0000000000000000    0.0000000000000000
    -1.6354999999999993    2.8327690957788989    0.0000000000000000
     0.0000000000000000    0.0000000000000000   25.4780000000000015
 Ru  Te  Bi 
   6   6   3
Direct
  0.9999999999999997  0.9999999999999998  0.5960900000000000
  0.0000000000000000  0.0000000000000000  0.4039100000000000
  0.6666700000000000  0.3333300000000000  0.9294300000000000
  0.6666700000000000  0.3333300000000000  0.7372400000000000
  0.3333300000000000  0.6666700000000000  0.2627600000000000
  0.3333300000000000  0.6666700000000000  0.0705700000000000
  0.0000000000000000  0.0000000000000000  0.7906400000000000
  0.9999999999999997  0.9999999999999998  0.2093600000000000
  0.6666700000000000  0.3333300000000000  0.1239700000000000
  0.6666700000000000  0.3333300000000000  0.5426900000000000
  0.3333300000000000  0.6666700000000000  0.4573100000000000
  0.3333300000000000  0.6666700000000000  0.8760299999999998
  0.0000000000000000  0.0000000000000000  0.0000000000000000
  0.6666700000000000  0.3333300000000000  0.3333300000000000
  0.3333300000000000  0.6666700000000000  0.6666699999999999
