Zn  V  N Se 
 1.0000000000000000
     3.3029999999999999    0.0000000000000000    0.0000000000000000
    -1.6514999999999991    2.8604819087000011    0.0000000000000000
     0.0000000000000000    0.0000000000000000   25.8299999999999983
 Zn  V   N   Se 
   3   6   3   6
Direct
  0.0000000000000000  0.0000000000000000  0.0000000000000000
  0.6666700000000000  0.3333300000000000  0.3333300000000001
  0.3333300000000000  0.6666700000000000  0.6666700000000001
  0.0000000000000000  0.0000000000000000  0.8593800000000001
  0.0000000000000000  0.0000000000000000  0.1406200000000000
  0.6666700000000000  0.3333300000000000  0.1926800000000000
  0.6666700000000000  0.3333300000000000  0.4739700000000000
  0.3333300000000000  0.6666700000000000  0.5260300000000000
  0.3333300000000000  0.6666700000000000  0.8073200000000000
  0.0000000000000000  0.0000000000000000  0.5000000000000000
  0.6666700000000000  0.3333300000000000  0.8334200000000000
  0.3333300000000000  0.6666700000000000  0.1665800000000000
  0.0000100000000001  0.9999900000000002  0.7604200000000001
  0.9999899999999998  0.0000100000000000  0.2395800000000000
  0.6666700000000000  0.3333300000000000  0.0936600000000000
  0.6666600000000000  0.3333400000000000  0.5729400000000000
  0.3333400000000000  0.6666600000000000  0.4270600000000001
  0.3333300000000000  0.6666700000000000  0.9063400000000001
