Ni Mo  N  S 
 1.0000000000000000
     3.3029999999999999    0.0000000000000000    0.0000000000000000
    -1.6514999999999991    2.8604819087000011    0.0000000000000000
     0.0000000000000000    0.0000000000000000   25.8299999999999983
 Ni  Mo  N   S  
   3   6   3   6
Direct
  0.0000000000000000  0.0000000000000000  0.0000000000000000
  0.0161300000000000  0.9838700000000000  0.3635300000000000
  0.9838700000000000  0.0161300000000000  0.6364700000000000
  0.9983299999999999  0.0016700000000000  0.8399000000000000
  0.0016700000000000  0.9983300000000001  0.1601000000000000
  0.6683599999999998  0.3316400000000000  0.2269400000000000
  0.5665400000000002  0.4334600000000000  0.4552500000000000
  0.4334599999999999  0.5665400000000000  0.5447500000000000
  0.3316399999999999  0.6683600000000000  0.7730600000000001
  0.0000000000000000  0.0000000000000000  0.5000000000000000
  0.6649699999999997  0.3350300000000000  0.8306400000000000
  0.3350300000000000  0.6649700000000000  0.1693600000000000
  0.9983299999999999  0.0016700000000000  0.7329800000000000
  0.0016700000000000  0.9983300000000001  0.2670200000000000
  0.0015000000000000  0.9985000000000001  0.0785400000000000
  0.7433499999999998  0.2566500000000000  0.5804800000000000
  0.2566499999999999  0.7433500000000000  0.4195200000000000
  0.9985000000000001  0.0015000000000000  0.9214599999999999
