Cu Mn  C Se
 1.0000000000000000
     3.3029999999999999    0.0000000000000000    0.0000000000000000
    -1.6514999999999991    2.8604819087000011    0.0000000000000000
     0.0000000000000000    0.0000000000000000   25.8299999999999983
 Cu  Mn  C   Se
   3   6   3   6
Direct
  0.0000000000000000  0.0000000000000000  0.0000000000000000
  0.6666700000000000  0.3333300000000000  0.3333300000000001
  0.3333300000000000  0.6666700000000000  0.6666700000000001
  0.0000000000000000  0.0000000000000000  0.8660700000000000
  0.0000000000000000  0.0000000000000000  0.1339300000000000
  0.6666700000000000  0.3333300000000000  0.1994000000000000
  0.6666700000000000  0.3333300000000000  0.4672600000000000
  0.3333300000000000  0.6666700000000000  0.5327400000000000
  0.3333300000000000  0.6666700000000000  0.8006000000000000
  0.0000000000000000  0.0000000000000000  0.5000000000000000
  0.6666700000000000  0.3333300000000000  0.8333300000000000
  0.3333300000000000  0.6666700000000000  0.1666700000000000
  0.0000000000000000  0.0000000000000000  0.7347600000000000
  0.0000000000000000  0.0000000000000000  0.2652400000000000
  0.6666700000000000  0.3333300000000000  0.0681000000000000
  0.6666600000000000  0.3333400000000000  0.5985700000000000
  0.3333400000000000  0.6666600000000000  0.4014300000000000
  0.3333300000000000  0.6666700000000000  0.9319000000000000
