Ru  S  C 
 1.0000000000000000
     3.2690000000000001    0.0000000000000000    0.0000000000000000
    -1.6344999999999992    2.8310370449713305    0.0000000000000000
     0.0000000000000000    0.0000000000000000    8.5470000000000006
 Ru  S   C  
   2   2   1
Direct
  0.6664399999999998  0.3332200000000000  0.8859200000000000
  0.3335600000000000  0.6667800000000002  0.1140800000000000
  0.6666499999999999  0.3333300000000000  0.2891500000000000
  0.3333499999999999  0.6666700000000000  0.7108500000000000
  0.0000000000000000  0.0000000000000000  0.0000000000000000
