Cr Zr  N  S 
 1.0000000000000000
     3.3029999999999999    0.0000000000000000    0.0000000000000000
    -1.6514999999999991    2.8604819087000011    0.0000000000000000
     0.0000000000000000    0.0000000000000000   25.8299999999999983
 Cr  Zr  N   S  
   3   6   3   6
Direct
  0.0000000000000000  0.0000000000000000  0.0000000000000000
  0.4074099999999999  0.5925900000000000  0.3129900000000000
  0.5925899999999997  0.4074100000000000  0.6870100000000000
  0.9961700000000000  0.0038300000000000  0.9111700000000003
  0.0038300000000001  0.9961700000000001  0.0888300000000000
  0.6626000000000000  0.3374000000000000  0.1483100000000000
  0.6638100000000000  0.3361900000000000  0.4706000000000000
  0.3361900000000000  0.6638100000000000  0.5294000000000000
  0.3374000000000000  0.6626000000000000  0.8516899999999999
  0.0000000000000000  0.0000000000000000  0.5000000000000000
  0.6704900000000000  0.3295100000000000  0.8452200000000000
  0.3295100000000000  0.6704900000000000  0.1547800000000000
  0.2608500000000001  0.7391500000000000  0.7115700000000000
  0.7391500000000000  0.2608500000000000  0.2884300000000000
  0.6643500000000000  0.3356500000000000  0.0488700000000000
  0.5913899999999999  0.4086100000000000  0.6013600000000000
  0.4086100000000000  0.5913900000000000  0.3986400000000000
  0.3356500000000000  0.6643500000000000  0.9511300000000000
