Ni Ru  S  N 
 1.0000000000000000
     3.3121000000000000    0.0000000000000000    0.0000000000000000
    -1.6560499999999994    2.8683627398744393    0.0000000000000000
     0.0000000000000000    0.0000000000000000    9.0113000000000003
 Ni  Ru  S   N  
   2   2   2   1
Direct
  0.6666900000000002  0.3333500000000000  0.5879900000000000
  0.3333100000000000  0.6666500000000000  0.4120100000000000
  0.6664600000000002  0.3332300000000000  0.8949500000000001
  0.3335400000000001  0.6667700000000000  0.1050500000000000
  0.6666200000000000  0.3333100000000000  0.2889600000000000
  0.3333800000000000  0.6666900000000000  0.7110400000000000
  0.0000000000000000  0.0000000000000000  0.0000000000000000
