Os Te Sn 
 1.0000000000000000
     3.2709999999999999    0.0000000000000000    0.0000000000000000
    -1.6354999999999993    2.8327690957788989    0.0000000000000000
     0.0000000000000000    0.0000000000000000   25.4780000000000015
 Os  Te  Sn 
   6   6   3
Direct
  0.9999999999999997  0.9999999999999998  0.5954500000000000
  0.0000000000000000  0.0000000000000000  0.4045500000000000
  0.6666700000000000  0.3333300000000000  0.9287899999999998
  0.6666700000000000  0.3333300000000000  0.7378800000000000
  0.3333300000000000  0.6666700000000000  0.2621200000000000
  0.3333300000000000  0.6666700000000000  0.0712100000000000
  0.9999999999999997  0.9999999999999998  0.7898700000000000
  0.0000000000000000  0.0000000000000000  0.2101300000000000
  0.6666700000000000  0.3333300000000000  0.1232000000000000
  0.6666800000000001  0.3333199999999999  0.5434600000000001
  0.3333199999999999  0.6666800000000001  0.4565400000000000
  0.3333300000000000  0.6666700000000000  0.8768000000000000
  0.0000000000000000  0.0000000000000000  0.0000000000000000
  0.6666600000000000  0.3333400000000000  0.3333300000000000
  0.3333400000000000  0.6666600000000000  0.6666699999999999
