Mn Pt  C Te
 1.0000000000000000
     3.3029999999999999    0.0000000000000000    0.0000000000000000
    -1.6514999999999993    2.8604819087000011    0.0000000000000000
     0.0000000000000000    0.0000000000000000   25.8299999999999983
 Mn  Pt  C   Te
   3   6   3   6
Direct
  0.0000000000000000  0.0000000000000000  0.0000000000000000
  0.8388400000000000  0.1611600000000000  0.3281300000000000
  0.1611599999999999  0.8388400000000000  0.6718700000000000
  0.0079100000000000  0.9920900000000000  0.8802000000000000
  0.9920899999999999  0.0079100000000000  0.1198000000000000
  0.7402800000000000  0.2597200000000000  0.2032500000000000
  0.6781100000000000  0.3218900000000000  0.4563300000000001
  0.3218900000000000  0.6781100000000000  0.5436700000000000
  0.2597200000000000  0.7402800000000000  0.7967500000000000
  0.0000000000000000  0.0000000000000000  0.5000000000000000
  0.7278200000000000  0.2721800000000000  0.8343900000000000
  0.2721800000000000  0.7278200000000000  0.1656100000000000
  0.8444699999999998  0.1555300000000000  0.7200600000000000
  0.1555300000000001  0.8444700000000001  0.2799400000000000
  0.6678800000000000  0.3321200000000000  0.0546200000000000
  0.6419699999999999  0.3580300000000000  0.6073400000000000
  0.3580300000000000  0.6419700000000000  0.3926600000000000
  0.3321199999999999  0.6678800000000000  0.9453800000000000
