Na Co  C Te
 1.0000000000000000
     3.3029999999999999    0.0000000000000000    0.0000000000000000
    -1.6514999999999991    2.8604819087000011    0.0000000000000000
     0.0000000000000000    0.0000000000000000   25.8299999999999983
 Na  Co  C   Te
   3   6   3   6
Direct
  0.0000000000000000  0.0000000000000000  0.0000000000000000
  0.6666700000000000  0.3333300000000000  0.3333300000000001
  0.3333300000000000  0.6666700000000000  0.6666700000000001
  0.0000000000000000  0.0000000000000000  0.8619500000000000
  0.0000000000000000  0.0000000000000000  0.1380500000000000
  0.6666700000000000  0.3333300000000000  0.1952800000000000
  0.6666700000000000  0.3333300000000000  0.4713800000000001
  0.3333300000000000  0.6666700000000000  0.5286200000000000
  0.3333300000000000  0.6666700000000000  0.8047200000000000
  0.0000000000000000  0.0000000000000000  0.5000000000000000
  0.6666700000000000  0.3333300000000000  0.8333300000000000
  0.3333300000000000  0.6666700000000000  0.1666700000000000
  0.0000000000000000  0.0000000000000000  0.7433600000000000
  0.0000000000000000  0.0000000000000000  0.2566400000000000
  0.6666700000000000  0.3333300000000000  0.0766900000000000
  0.6666600000000000  0.3333400000000000  0.5899799999999999
  0.3333400000000000  0.6666600000000000  0.4100200000000000
  0.3333300000000000  0.6666700000000000  0.9233100000000000
