Cu Ag  C Te
 1.0000000000000000
     3.3029999999999999    0.0000000000000000    0.0000000000000000
    -1.6514999999999993    2.8604819087000011    0.0000000000000000
     0.0000000000000000    0.0000000000000000   25.8299999999999983
 Cu  Ag  C   Te
   3   6   3   6
Direct
  0.0000000000000000  0.0000000000000000  0.0000000000000000
  0.6666700000000000  0.3333300000000000  0.3333300000000001
  0.3333300000000000  0.6666700000000000  0.6666700000000001
  0.0000000000000000  0.0000000000000000  0.8753000000000000
  0.0000000000000000  0.0000000000000000  0.1247000000000000
  0.6666700000000000  0.3333300000000000  0.2086400000000000
  0.6666700000000000  0.3333300000000000  0.4580300000000000
  0.3333300000000000  0.6666700000000000  0.5419700000000000
  0.3333300000000000  0.6666700000000000  0.7913600000000002
  0.0000000000000000  0.0000000000000000  0.5000000000000000
  0.6666700000000000  0.3333300000000000  0.8333300000000000
  0.3333300000000000  0.6666700000000000  0.1666700000000000
  0.0000000000000000  0.0000000000000000  0.7271000000000000
  0.0000000000000000  0.0000000000000000  0.2729000000000000
  0.6666700000000000  0.3333300000000000  0.0604300000000000
  0.6666700000000000  0.3333300000000000  0.6062400000000000
  0.3333300000000000  0.6666700000000000  0.3937600000000000
  0.3333300000000000  0.6666700000000000  0.9395700000000000
