Rh  S Sb 
 1.0000000000000000
     3.2709999999999999    0.0000000000000000    0.0000000000000000
    -1.6354999999999993    2.8327690957788989    0.0000000000000000
     0.0000000000000000    0.0000000000000000   25.4780000000000015
 Rh  S   Sb 
   6   6   3
Direct
  0.9999999999999997  0.9999999999999998  0.5977800000000000
  0.0000000000000000  0.0000000000000000  0.4022200000000000
  0.6666700000000000  0.3333300000000000  0.9311199999999997
  0.6666700000000000  0.3333300000000000  0.7355500000000000
  0.3333300000000000  0.6666700000000000  0.2644500000000000
  0.3333300000000000  0.6666700000000000  0.0688800000000000
  0.9999999999999997  0.9999999999999998  0.7840999999999998
  0.0000000000000000  0.0000000000000000  0.2159000000000000
  0.6666700000000000  0.3333300000000000  0.1174300000000000
  0.6666700000000000  0.3333300000000000  0.5492400000000000
  0.3333300000000000  0.6666700000000000  0.4507599999999999
  0.3333300000000000  0.6666700000000000  0.8825700000000000
  0.0000000000000000  0.0000000000000000  0.0000000000000000
  0.6666700000000000  0.3333300000000000  0.3333300000000000
  0.3333300000000000  0.6666700000000000  0.6666699999999999
