Co Pt  C Te
 1.0000000000000000
     3.3029999999999999    0.0000000000000000    0.0000000000000000
    -1.6514999999999993    2.8604819087000011    0.0000000000000000
     0.0000000000000000    0.0000000000000000   25.8299999999999983
 Co  Pt  C   Te
   3   6   3   6
Direct
  0.0000000000000000  0.0000000000000000  0.0000000000000000
  0.6666700000000000  0.3333300000000000  0.3333300000000001
  0.3333300000000000  0.6666700000000000  0.6666700000000001
  0.0000000000000000  0.0000000000000000  0.8767000000000000
  0.0000000000000000  0.0000000000000000  0.1233000000000000
  0.6666700000000000  0.3333300000000000  0.2100300000000000
  0.6666700000000000  0.3333300000000000  0.4566300000000000
  0.3333300000000000  0.6666700000000000  0.5433700000000000
  0.3333300000000000  0.6666700000000000  0.7899700000000000
  0.0000000000000000  0.0000000000000000  0.5000000000000000
  0.6666700000000000  0.3333300000000000  0.8333300000000000
  0.3333300000000000  0.6666700000000000  0.1666700000000000
  0.0000000000000000  0.0000000000000000  0.7261000000000001
  0.0000000000000000  0.0000000000000000  0.2739000000000000
  0.6666700000000000  0.3333300000000000  0.0594300000000000
  0.6666700000000000  0.3333300000000000  0.6072400000000000
  0.3333300000000000  0.6666700000000000  0.3927600000000000
  0.3333300000000000  0.6666700000000000  0.9405700000000000
