Cr Cu  C Se
 1.0000000000000000
     3.3029999999999999    0.0000000000000000    0.0000000000000000
    -1.6514999999999993    2.8604819087000011    0.0000000000000000
     0.0000000000000000    0.0000000000000000   25.8299999999999983
 Cr  Cu  C   Se
   3   6   3   6
Direct
  0.0000000000000000  0.0000000000000000  0.0000000000000000
  0.5192900000000000  0.4807100000000000  0.3143600000000000
  0.4807100000000000  0.5192900000000000  0.6856400000000001
  0.1281900000000001  0.8718100000000001  0.8814600000000000
  0.8718099999999999  0.1281900000000000  0.1185400000000000
  0.5021099999999999  0.4978900000000000  0.2205900000000000
  0.5121900000000000  0.4878100000000000  0.4496900000000000
  0.4878100000000000  0.5121900000000000  0.5503100000000000
  0.4978900000000000  0.5021099999999999  0.7794100000000000
  0.0000000000000000  0.0000000000000000  0.5000000000000000
  0.9671599999999998  0.0328400000000000  0.8213700000000000
  0.0328400000000000  0.9671600000000000  0.1786300000000000
  0.1544900000000000  0.8455100000000001  0.7114300000000000
  0.8455100000000000  0.1544900000000000  0.2885700000000000
  0.6599199999999997  0.3400800000000000  0.0447600000000000
  0.9748100000000000  0.0251900000000000  0.6158400000000001
  0.0251900000000000  0.9748100000000000  0.3841600000000000
  0.3400800000000000  0.6599200000000000  0.9552400000000001
