Os Se Pb 
 1.0000000000000000
     3.2709999999999999    0.0000000000000000    0.0000000000000000
    -1.6354999999999993    2.8327690957788989    0.0000000000000000
     0.0000000000000000    0.0000000000000000   25.4780000000000015
 Os  Se  Pb 
   6   6   3
Direct
  0.0000000000000000  0.0000000000000000  0.5886100000000000
  0.9999999999999997  0.9999999999999998  0.4113900000000000
  0.6666700000000000  0.3333300000000000  0.9219399999999999
  0.6666700000000000  0.3333300000000000  0.7447300000000000
  0.3333300000000000  0.6666700000000000  0.2552700000000000
  0.3333300000000000  0.6666700000000000  0.0780600000000000
  0.0000000000000000  0.0000000000000000  0.7894099999999999
  0.9999999999999997  0.9999999999999998  0.2105900000000000
  0.6666600000000000  0.3333400000000000  0.1227400000000000
  0.6666700000000000  0.3333300000000000  0.5439300000000000
  0.3333300000000000  0.6666700000000000  0.4560700000000000
  0.3333400000000000  0.6666600000000000  0.8772600000000000
  0.0000000000000000  0.0000000000000000  0.0000000000000000
  0.6666600000000000  0.3333400000000000  0.3333300000000000
  0.3333400000000000  0.6666600000000000  0.6666699999999999
