Ni Mo  C Se
 1.0000000000000000
     3.3029999999999999    0.0000000000000000    0.0000000000000000
    -1.6514999999999993    2.8604819087000011    0.0000000000000000
     0.0000000000000000    0.0000000000000000   25.8299999999999983
 Ni  Mo  C   Se
   3   6   3   6
Direct
  0.0000000000000000  0.0000000000000000  0.0000000000000000
  0.6665100000000000  0.3334900000000000  0.3467400000000000
  0.3334900000000000  0.6665100000000000  0.6532600000000000
  0.9999100000000000  0.0000900000000000  0.8830900000000000
  0.0000900000000000  0.9999100000000000  0.1169100000000000
  0.6667600000000000  0.3332400000000000  0.1716800000000000
  0.6666600000000000  0.3333400000000000  0.4720200000000001
  0.3333400000000000  0.6666600000000000  0.5279800000000000
  0.3332400000000000  0.6667600000000000  0.8283199999999999
  0.0000000000000000  0.0000000000000000  0.5000000000000000
  0.6665800000000000  0.3334200000000000  0.8312900000000000
  0.3334200000000000  0.6665800000000000  0.1687100000000000
  0.0002300000000000  0.9997700000000000  0.7096100000000000
  0.9997700000000000  0.0002300000000000  0.2903900000000000
  0.6667600000000000  0.3332400000000000  0.0626600000000000
  0.6667200000000000  0.3332800000000000  0.5898400000000000
  0.3332800000000000  0.6667200000000000  0.4101600000000000
  0.3332400000000000  0.6667600000000000  0.9373400000000001
