Li Ni  C  S
 1.0000000000000000
     3.3029999999999999    0.0000000000000000    0.0000000000000000
    -1.6514999999999991    2.8604819087000011    0.0000000000000000
     0.0000000000000000    0.0000000000000000   25.8299999999999983
 Li  Ni  C   S
   3   6   3   6
Direct
  0.0000000000000000  0.0000000000000000  0.0000000000000000
  0.6666700000000000  0.3333300000000000  0.3333300000000001
  0.3333300000000000  0.6666700000000000  0.6666700000000001
  0.0000000000000000  0.0000000000000000  0.8712800000000001
  0.0000000000000000  0.0000000000000000  0.1287200000000000
  0.6666700000000000  0.3333300000000000  0.2046100000000000
  0.6666700000000000  0.3333300000000000  0.4620500000000000
  0.3333300000000000  0.6666700000000000  0.5379500000000000
  0.3333300000000000  0.6666700000000000  0.7953900000000000
  0.0000000000000000  0.0000000000000000  0.5000000000000000
  0.6666700000000000  0.3333300000000000  0.8333300000000000
  0.3333300000000000  0.6666700000000000  0.1666700000000000
  0.0000000000000000  0.0000000000000000  0.7410700000000000
  0.0000000000000000  0.0000000000000000  0.2589300000000000
  0.6666700000000000  0.3333300000000000  0.0744100000000000
  0.6666600000000000  0.3333400000000000  0.5922600000000000
  0.3333400000000000  0.6666600000000000  0.4077400000000000
  0.3333300000000000  0.6666700000000000  0.9255900000000000
