Pt Se Ga 
 1.0000000000000000
     3.2709999999999999    0.0000000000000000    0.0000000000000000
    -1.6354999999999993    2.8327690957788989    0.0000000000000000
     0.0000000000000000    0.0000000000000000   25.4780000000000015
 Pt  Se  Ga 
   6   6   3
Direct
  0.9999999999999997  0.9999999999999998  0.5859900000000000
  0.0000000000000000  0.0000000000000000  0.4140099999999999
  0.6666600000000000  0.3333400000000000  0.9193199999999999
  0.6666600000000000  0.3333400000000000  0.7473500000000000
  0.3333400000000000  0.6666600000000000  0.2526500000000000
  0.3333400000000000  0.6666600000000000  0.0806800000000000
  0.0000000000000000  0.0000000000000000  0.8066100000000000
  0.9999999999999997  0.9999999999999998  0.1933900000000000
  0.6666700000000000  0.3333300000000000  0.1399400000000000
  0.6666700000000000  0.3333300000000000  0.5267300000000000
  0.3333300000000000  0.6666700000000000  0.4732700000000000
  0.3333300000000000  0.6666700000000000  0.8600599999999998
  0.0000000000000000  0.0000000000000000  0.0000000000000000
  0.6666600000000000  0.3333400000000000  0.3333400000000000
  0.3333400000000000  0.6666600000000000  0.6666599999999999
