Ni Zn  C  S
 1.0000000000000000
     3.3029999999999999    0.0000000000000000    0.0000000000000000
    -1.6514999999999991    2.8604819087000011    0.0000000000000000
     0.0000000000000000    0.0000000000000000   25.8299999999999983
 Ni  Zn  C   S
   3   6   3   6
Direct
  0.0000000000000000  0.0000000000000000  0.0000000000000000
  0.6666700000000000  0.3333300000000000  0.3333300000000001
  0.3333300000000000  0.6666700000000000  0.6666700000000001
  0.0000000000000000  0.0000000000000000  0.8702700000000000
  0.0000000000000000  0.0000000000000000  0.1297300000000000
  0.6666700000000000  0.3333300000000000  0.2036000000000000
  0.6666700000000000  0.3333300000000000  0.4630600000000001
  0.3333300000000000  0.6666700000000000  0.5369400000000000
  0.3333300000000000  0.6666700000000000  0.7964000000000002
  0.0000000000000000  0.0000000000000000  0.5000000000000000
  0.6666700000000000  0.3333300000000000  0.8333300000000000
  0.3333300000000000  0.6666700000000000  0.1666700000000000
  0.0000000000000000  0.0000000000000000  0.7151600000000000
  0.0000000000000000  0.0000000000000000  0.2848400000000000
  0.6666700000000000  0.3333300000000000  0.0484900000000000
  0.6666600000000000  0.3333400000000000  0.6181800000000000
  0.3333400000000000  0.6666600000000000  0.3818200000000000
  0.3333300000000000  0.6666700000000000  0.9515100000000000
