Na  W  N  S 
 1.0000000000000000
     3.3029999999999999    0.0000000000000000    0.0000000000000000
    -1.6514999999999991    2.8604819087000011    0.0000000000000000
     0.0000000000000000    0.0000000000000000   25.8299999999999983
 Na  W   N   S  
   3   6   3   6
Direct
  0.0000000000000000  0.0000000000000000  0.0000000000000000
  0.6666700000000000  0.3333300000000000  0.3333600000000000
  0.3333300000000000  0.6666700000000000  0.6666400000000000
  0.0000000000000000  0.0000000000000000  0.8625500000000001
  0.0000000000000000  0.0000000000000000  0.1374500000000000
  0.6666700000000000  0.3333300000000000  0.1957400000000000
  0.6666700000000000  0.3333300000000000  0.4708700000000001
  0.3333300000000000  0.6666700000000000  0.5291300000000000
  0.3333300000000000  0.6666700000000000  0.8042600000000000
  0.0000000000000000  0.0000000000000000  0.5000000000000000
  0.6666700000000000  0.3333300000000000  0.8343000000000002
  0.3333300000000000  0.6666700000000000  0.1657000000000000
  0.0000000000000000  0.0000000000000000  0.7547200000000001
  0.0000000000000000  0.0000000000000000  0.2452800000000000
  0.6666700000000000  0.3333300000000000  0.0874800000000000
  0.6666700000000000  0.3333300000000000  0.5788800000000000
  0.3333300000000000  0.6666700000000000  0.4211200000000000
  0.3333300000000000  0.6666700000000000  0.9125200000000000
