Ni  W  C Se
 1.0000000000000000
     3.3029999999999999    0.0000000000000000    0.0000000000000000
    -1.6514999999999993    2.8604819087000011    0.0000000000000000
     0.0000000000000000    0.0000000000000000   25.8299999999999983
 Ni  W   C   Se
   3   6   3   6
Direct
  0.0000000000000000  0.0000000000000000  0.0000000000000000
  0.6665999999999997  0.3334000000000000  0.3460700000000000
  0.3334000000000000  0.6666000000000000  0.6539300000000000
  0.9999600000000000  0.0000400000000000  0.8837100000000000
  0.0000400000000001  0.9999600000000000  0.1162900000000000
  0.6667100000000000  0.3332900000000000  0.1733300000000000
  0.6666700000000000  0.3333300000000000  0.4715200000000000
  0.3333300000000000  0.6666700000000000  0.5284799999999999
  0.3332900000000000  0.6667100000000000  0.8266700000000000
  0.0000000000000000  0.0000000000000000  0.5000000000000000
  0.6666199999999999  0.3333800000000000  0.8341500000000001
  0.3333800000000000  0.6666200000000000  0.1658500000000000
  0.0001100000000000  0.9998899999999999  0.7094500000000000
  0.9998899999999998  0.0001100000000000  0.2905500000000000
  0.6667100000000000  0.3332900000000000  0.0619300000000000
  0.6666800000000001  0.3333200000000000  0.5905800000000000
  0.3333200000000000  0.6666800000000001  0.4094200000000000
  0.3332900000000000  0.6667100000000000  0.9380700000000000
