Hg Te As 
 1.0000000000000000
     3.2709999999999999    0.0000000000000000    0.0000000000000000
    -1.6354999999999993    2.8327690957788989    0.0000000000000000
     0.0000000000000000    0.0000000000000000   25.4780000000000015
 Hg  Te  As 
   6   6   3
Direct
  0.9999999999999997  0.9999999999999998  0.6070600000000000
  0.0000000000000000  0.0000000000000000  0.3929400000000000
  0.6666700000000000  0.3333300000000000  0.9403899999999997
  0.6666700000000000  0.3333300000000000  0.7262800000000000
  0.3333300000000000  0.6666700000000000  0.2737200000000000
  0.3333300000000000  0.6666700000000000  0.0596100000000000
  0.9999999999999997  0.9999999999999998  0.7970099999999998
  0.0000000000000000  0.0000000000000000  0.2029900000000000
  0.6666700000000000  0.3333300000000000  0.1303400000000000
  0.6666700000000000  0.3333300000000000  0.5363300000000000
  0.3333300000000000  0.6666700000000000  0.4636700000000000
  0.3333300000000000  0.6666700000000000  0.8696600000000000
  0.0000000000000000  0.0000000000000000  0.0000000000000000
  0.6666700000000000  0.3333300000000000  0.3333300000000000
  0.3333300000000000  0.6666700000000000  0.6666699999999999
