Nb  S Ge 
 1.0000000000000000
     3.2690000000000001    0.0000000000000000    0.0000000000000000
    -1.6344999999999994    2.8310370449713305    0.0000000000000000
     0.0000000000000000    0.0000000000000000    8.5470000000000006
 Nb  S   Ge 
   2   2   1
Direct
  0.4610399999999999  0.2305200000000000  0.7427500000000000
  0.5389599999999998  0.7694800000000001  0.2572500000000000
  0.8466899999999998  0.4233400000000000  0.3407800000000000
  0.1533100000000000  0.5766600000000000  0.6592200000000000
  0.0000000000000000  0.0000000000000000  0.0000000000000000
