 W Te  B 
 1.0000000000000000
     3.2709999999999999    0.0000000000000000    0.0000000000000000
    -1.6354999999999993    2.8327690957788989    0.0000000000000000
     0.0000000000000000    0.0000000000000000   25.4780000000000015
 W   Te  B  
   6   6   3
Direct
  0.0000000000000000  0.0000000000000000  0.6373599999999999
  0.9999999999999997  0.9999999999999998  0.3626400000000000
  0.6666700000000000  0.3333300000000000  0.9707000000000000
  0.6666700000000000  0.3333300000000000  0.6959699999999998
  0.3333300000000000  0.6666700000000000  0.3040300000000000
  0.3333300000000000  0.6666700000000000  0.0293000000000000
  0.9999900000000000  0.0000100000000000  0.7720599999999999
  0.0000100000000000  0.9999899999999999  0.2279400000000000
  0.6666900000000000  0.3333099999999999  0.1054000000000000
  0.6666800000000001  0.3333199999999999  0.5612700000000000
  0.3333199999999999  0.6666800000000001  0.4387299999999999
  0.3333100000000000  0.6666900000000000  0.8946000000000000
  0.0000000000000000  0.0000000000000000  0.0000000000000000
  0.6666700000000000  0.3333300000000000  0.3333300000000000
  0.3333300000000000  0.6666700000000000  0.6666699999999999
