Ag Pt  C Se
 1.0000000000000000
     3.3029999999999999    0.0000000000000000    0.0000000000000000
    -1.6514999999999993    2.8604819087000011    0.0000000000000000
     0.0000000000000000    0.0000000000000000   25.8299999999999983
 Ag  Pt  C   Se
   3   6   3   6
Direct
  0.0000000000000000  0.0000000000000000  0.0000000000000000
  0.6666700000000000  0.3333300000000000  0.3333300000000001
  0.3333300000000000  0.6666700000000000  0.6666700000000001
  0.0000000000000000  0.0000000000000000  0.8759500000000000
  0.0000000000000000  0.0000000000000000  0.1240500000000000
  0.6666700000000000  0.3333300000000000  0.2092800000000000
  0.6666700000000000  0.3333300000000000  0.4573900000000001
  0.3333300000000000  0.6666700000000000  0.5426100000000000
  0.3333300000000000  0.6666700000000000  0.7907200000000002
  0.0000000000000000  0.0000000000000000  0.5000000000000000
  0.6666700000000000  0.3333300000000000  0.8333300000000000
  0.3333300000000000  0.6666700000000000  0.1666700000000000
  0.0000000000000000  0.0000000000000000  0.7357500000000001
  0.0000000000000000  0.0000000000000000  0.2642500000000000
  0.6666700000000000  0.3333300000000000  0.0690800000000000
  0.6666700000000000  0.3333300000000000  0.5975800000000000
  0.3333300000000000  0.6666700000000000  0.4024200000000001
  0.3333300000000000  0.6666700000000000  0.9309200000000000
