Ti  W Se  C 
 1.0000000000000000
     3.3121000000000000    0.0000000000000000    0.0000000000000000
    -1.6560499999999991    2.8683627398744393    0.0000000000000000
     0.0000000000000000    0.0000000000000000    9.0113000000000003
 Ti  W   Se  C  
   2   2   2   1
Direct
  0.6666600000000003  0.3333300000000000  0.5814900000000000
  0.3333400000000000  0.6666700000000000  0.4185100000000000
  0.6666600000000003  0.3333300000000000  0.9010400000000000
  0.3333400000000000  0.6666700000000000  0.0989600000000000
  0.6666700000000001  0.3333400000000000  0.2773000000000000
  0.3333300000000001  0.6666600000000000  0.7227000000000000
  0.0000000000000000  0.0000000000000000  0.0000000000000000
