Co  B Te 
 1.0000000000000000
     3.3435999999999999    0.0000000000000000    0.0000000000000000
    -1.6717999999999993    2.8956425400936490    0.0000000000000000
     0.0000000000000000    0.0000000000000000   11.5808999999999997
 Co  B   Te 
   4   2   2
Direct
  0.3536400000000000  0.6463600000000000  0.4237800000000000
  0.6463600000000000  0.3536400000000000  0.5762200000000000
  0.6453500000000000  0.3546500000000000  0.9236999999999999
  0.3546500000000000  0.6453500000000000  0.0763000000000000
  0.0000000000000000  0.0000000000000000  0.0000000000000000
  0.0000000000000000  0.0000000000000000  0.5000000000000000
  0.4926700000000000  0.5073299999999999  0.7498500000000001
  0.5073299999999998  0.4926699999999999  0.2501500000000000
