Zn Te  N 
 1.0000000000000000
     3.2709999999999999    0.0000000000000000    0.0000000000000000
    -1.6354999999999991    2.8327690957788989    0.0000000000000000
     0.0000000000000000    0.0000000000000000   25.4780000000000015
 Zn  Te  N  
   6   6   3
Direct
  0.0000000000000000  0.0000000000000000  0.6295299999999999
  0.9999999999999997  0.9999999999999998  0.3704700000000000
  0.6666700000000000  0.3333300000000000  0.9628600000000000
  0.6666700000000000  0.3333300000000000  0.7037999999999998
  0.3333300000000000  0.6666700000000000  0.2962000000000000
  0.3333300000000000  0.6666700000000000  0.0371400000000000
  0.9999999999999997  0.9999999999999998  0.7831100000000000
  0.0000000000000000  0.0000000000000000  0.2168900000000000
  0.6666700000000000  0.3333300000000000  0.1164400000000000
  0.6666700000000000  0.3333300000000000  0.5502200000000000
  0.3333300000000000  0.6666700000000000  0.4497800000000000
  0.3333300000000000  0.6666700000000000  0.8835599999999998
  0.0000000000000000  0.0000000000000000  0.0000000000000000
  0.6666700000000000  0.3333300000000000  0.3333300000000000
  0.3333300000000000  0.6666700000000000  0.6666699999999999
