Cd  S As 
 1.0000000000000000
     3.2709999999999999    0.0000000000000000    0.0000000000000000
    -1.6354999999999993    2.8327690957788989    0.0000000000000000
     0.0000000000000000    0.0000000000000000   25.4780000000000015
 Cd  S   As 
   6   6   3
Direct
  0.0060699999999999  0.9939299999999998  0.5794700000000000
  0.9939300000000000  0.0060700000000000  0.4205300000000000
  0.6808800000000000  0.3191200000000000  0.9134900000000000
  0.6909899999999999  0.3090100000000000  0.7518300000000000
  0.3090100000000000  0.6909900000000000  0.2481700000000000
  0.3191200000000000  0.6808800000000000  0.0865100000000000
  0.0391700000000000  0.9608300000000000  0.8259300000000001
  0.9608299999999999  0.0391700000000000  0.1740700000000000
  0.6666399999999999  0.3333600000000000  0.1604900000000000
  0.6862700000000000  0.3137300000000000  0.5057100000000000
  0.3137299999999999  0.6862699999999999  0.4942900000000000
  0.3333600000000000  0.6666399999999999  0.8395100000000000
  0.0000000000000000  0.0000000000000000  0.0000000000000000
  0.6326000000000001  0.3673999999999999  0.3346700000000000
  0.3673999999999999  0.6325999999999999  0.6653300000000000
