 W Bi  S 
 1.0000000000000000
     3.3435999999999999    0.0000000000000000    0.0000000000000000
    -1.6717999999999993    2.8956425400936490    0.0000000000000000
     0.0000000000000000    0.0000000000000000   11.5808999999999997
 W   Bi  S  
   4   2   2
Direct
  0.3333200000000000  0.6666800000000001  0.3434900000000000
  0.6666800000000001  0.3333200000000000  0.6565100000000000
  0.6666800000000001  0.3333200000000000  0.8434900000000001
  0.3333200000000000  0.6666800000000001  0.1565100000000000
  0.0000000000000000  0.0000000000000000  0.0000000000000000
  0.0000000000000000  0.0000000000000000  0.5000000000000000
  0.3333400000000000  0.6666599999999999  0.7500000000000000
  0.6666600000000000  0.3333400000000000  0.2500000000000000
