Rh  S  B 
 1.0000000000000000
     3.2709999999999999    0.0000000000000000    0.0000000000000000
    -1.6354999999999993    2.8327690957788989    0.0000000000000000
     0.0000000000000000    0.0000000000000000   25.4780000000000015
 Rh  S   B  
   6   6   3
Direct
  0.9997800000000000  0.0002200000000000  0.6075500000000000
  0.0002200000000000  0.9997800000000000  0.3924500000000000
  0.7206900000000001  0.2793100000000000  0.9579600000000000
  0.7790500000000000  0.2209500000000000  0.7021300000000000
  0.2209500000000000  0.7790500000000000  0.2978700000000000
  0.2793099999999999  0.7206899999999999  0.0420400000000000
  0.7580500000000000  0.2419500000000000  0.7863599999999999
  0.2419499999999998  0.7580499999999998  0.2136399999999999
  0.7710999999999999  0.2289000000000000  0.0991800000000000
  0.6765500000000000  0.3234500000000000  0.5624000000000000
  0.3234500000000000  0.6765500000000000  0.4376000000000000
  0.2289000000000000  0.7711000000000000  0.9008199999999997
  0.0000000000000000  0.0000000000000000  0.0000000000000000
  0.5545200000000000  0.4454800000000000  0.3154299999999999
  0.4454799999999999  0.5545199999999999  0.6845700000000000
