Mg Zr  N  S 
 1.0000000000000000
     3.3029999999999999    0.0000000000000000    0.0000000000000000
    -1.6514999999999991    2.8604819087000011    0.0000000000000000
     0.0000000000000000    0.0000000000000000   25.8299999999999983
 Mg  Zr  N   S  
   3   6   3   6
Direct
  0.0000000000000000  0.0000000000000000  0.0000000000000000
  0.7622499999999999  0.2377500000000000  0.3349500000000000
  0.2377499999999999  0.7622500000000000  0.6650500000000000
  0.8332400000000000  0.1667600000000000  0.8616000000000000
  0.1667600000000000  0.8332400000000000  0.1384000000000000
  0.8673599999999998  0.1326400000000000  0.2039200000000000
  0.7200699999999999  0.2799300000000000  0.4627400000000000
  0.2799299999999999  0.7200700000000000  0.5372600000000000
  0.1326400000000000  0.8673600000000000  0.7960800000000000
  0.0000000000000000  0.0000000000000000  0.5000000000000000
  0.5159400000000000  0.4840600000000000  0.8453500000000000
  0.4840599999999999  0.5159400000000000  0.1546500000000000
  0.8155800000000000  0.1844200000000000  0.7633700000000001
  0.1844200000000001  0.8155800000000000  0.2366300000000000
  0.7020199999999999  0.2979800000000000  0.0839100000000000
  0.6525800000000000  0.3474200000000000  0.5739000000000000
  0.3474200000000000  0.6525800000000000  0.4261000000000000
  0.2979800000000000  0.7020200000000000  0.9160900000000000
