Zn Cu  C Se
 1.0000000000000000
     3.3029999999999999    0.0000000000000000    0.0000000000000000
    -1.6514999999999993    2.8604819087000011    0.0000000000000000
     0.0000000000000000    0.0000000000000000   25.8299999999999983
 Zn  Cu  C   Se
   3   6   3   6
Direct
  0.0000000000000000  0.0000000000000000  0.0000000000000000
  0.6666700000000000  0.3333300000000000  0.3333300000000001
  0.3333300000000000  0.6666700000000000  0.6666700000000001
  0.0000000000000000  0.0000000000000000  0.8744499999999999
  0.0000000000000000  0.0000000000000000  0.1255500000000000
  0.6666700000000000  0.3333300000000000  0.2077800000000000
  0.6666700000000000  0.3333300000000000  0.4588800000000000
  0.3333300000000000  0.6666700000000000  0.5411200000000000
  0.3333300000000000  0.6666700000000000  0.7922200000000000
  0.0000000000000000  0.0000000000000000  0.5000000000000000
  0.6666800000000001  0.3333200000000000  0.8333300000000000
  0.3333200000000000  0.6666800000000001  0.1666700000000000
  0.0000000000000000  0.0000000000000000  0.7320200000000000
  0.0000000000000000  0.0000000000000000  0.2679800000000000
  0.6666700000000000  0.3333300000000000  0.0653500000000000
  0.6666700000000000  0.3333300000000000  0.6013200000000000
  0.3333300000000000  0.6666700000000000  0.3986800000000000
  0.3333300000000000  0.6666700000000000  0.9346500000000000
