Hg Te Bi 
 1.0000000000000000
     3.2709999999999999    0.0000000000000000    0.0000000000000000
    -1.6354999999999993    2.8327690957788989    0.0000000000000000
     0.0000000000000000    0.0000000000000000   25.4780000000000015
 Hg  Te  Bi 
   6   6   3
Direct
  0.0042499999999999  0.9957499999999998  0.5913900000000000
  0.9957500000000000  0.0042500000000000  0.4086100000000000
  0.6881699999999998  0.3118300000000000  0.9259100000000000
  0.7211600000000000  0.2788399999999999  0.7369100000000000
  0.2788400000000000  0.7211600000000000  0.2630900000000000
  0.3118299999999999  0.6881699999999997  0.0740900000000000
  0.0476699999999998  0.9523299999999998  0.8034100000000000
  0.9523300000000000  0.0476700000000000  0.1965900000000000
  0.6425899999999998  0.3574099999999999  0.1407200000000000
  0.6751400000000000  0.3248600000000000  0.5270800000000000
  0.3248600000000000  0.6751400000000000  0.4729200000000000
  0.3574099999999999  0.6425900000000000  0.8592800000000000
  0.0000000000000000  0.0000000000000000  0.0000000000000000
  0.5875100000000000  0.4124900000000000  0.3364499999999999
  0.4124900000000000  0.5875100000000000  0.6635500000000000
