Pd Te Al 
 1.0000000000000000
     3.2709999999999999    0.0000000000000000    0.0000000000000000
    -1.6354999999999993    2.8327690957788989    0.0000000000000000
     0.0000000000000000    0.0000000000000000   25.4780000000000015
 Pd  Te  Al 
   6   6   3
Direct
  0.9999999999999997  0.9999999999999998  0.6206700000000001
  0.0000000000000000  0.0000000000000000  0.3793300000000000
  0.6666700000000000  0.3333300000000000  0.9540099999999998
  0.6666700000000000  0.3333300000000000  0.7126600000000000
  0.3333300000000000  0.6666700000000000  0.2873400000000000
  0.3333300000000000  0.6666700000000000  0.0459900000000000
  0.9999999999999997  0.9999999999999998  0.7882100000000000
  0.0000000000000000  0.0000000000000000  0.2117900000000000
  0.6666700000000000  0.3333300000000000  0.1215400000000000
  0.6666700000000000  0.3333300000000000  0.5451200000000000
  0.3333300000000000  0.6666700000000000  0.4548800000000000
  0.3333300000000000  0.6666700000000000  0.8784599999999999
  0.0000000000000000  0.0000000000000000  0.0000000000000000
  0.6666700000000000  0.3333300000000000  0.3333300000000000
  0.3333300000000000  0.6666700000000000  0.6666699999999999
