Ru Se In 
 1.0000000000000000
     3.2709999999999999    0.0000000000000000    0.0000000000000000
    -1.6354999999999993    2.8327690957788989    0.0000000000000000
     0.0000000000000000    0.0000000000000000   25.4780000000000015
 Ru  Se  In 
   6   6   3
Direct
  0.0000000000000000  0.0000000000000000  0.5859400000000000
  0.9999999999999997  0.9999999999999998  0.4140600000000000
  0.6666700000000000  0.3333300000000000  0.9192800000000000
  0.6666700000000000  0.3333300000000000  0.7473900000000000
  0.3333300000000000  0.6666700000000000  0.2526100000000000
  0.3333300000000000  0.6666700000000000  0.0807200000000000
  0.9999999999999997  0.9999999999999998  0.7868100000000000
  0.0000000000000000  0.0000000000000000  0.2131900000000000
  0.6666700000000000  0.3333300000000000  0.1201400000000000
  0.6666700000000000  0.3333300000000000  0.5465300000000000
  0.3333300000000000  0.6666700000000000  0.4534700000000000
  0.3333300000000000  0.6666700000000000  0.8798600000000000
  0.0000000000000000  0.0000000000000000  0.0000000000000000
  0.6666600000000000  0.3333400000000000  0.3333300000000000
  0.3333400000000000  0.6666600000000000  0.6666699999999999
