Sc Mo  C Se
 1.0000000000000000
     3.3029999999999999    0.0000000000000000    0.0000000000000000
    -1.6514999999999993    2.8604819087000011    0.0000000000000000
     0.0000000000000000    0.0000000000000000   25.8299999999999983
 Sc  Mo  C   Se
   3   6   3   6
Direct
  0.0000000000000000  0.0000000000000000  0.0000000000000000
  0.6668500000000001  0.3331500000000000  0.3162000000000000
  0.3331500000000000  0.6668500000000001  0.6838000000000000
  0.9999899999999998  0.0000100000000000  0.8954600000000000
  0.0000100000000001  0.9999900000000002  0.1045400000000000
  0.6666700000000000  0.3333300000000000  0.1575000000000000
  0.6666499999999999  0.3333500000000000  0.4721300000000000
  0.3333499999999999  0.6666500000000000  0.5278700000000000
  0.3333300000000000  0.6666700000000000  0.8425000000000000
  0.0000000000000000  0.0000000000000000  0.5000000000000000
  0.6666600000000000  0.3333400000000000  0.8346500000000000
  0.3333400000000000  0.6666600000000000  0.1653500000000001
  0.9998200000000000  0.0001800000000000  0.7148200000000000
  0.0001800000000000  0.9998200000000000  0.2851800000000000
  0.6666800000000001  0.3333200000000000  0.0478700000000000
  0.6667300000000000  0.3332700000000000  0.5882100000000000
  0.3332700000000000  0.6667300000000000  0.4117900000000000
  0.3333200000000000  0.6666800000000001  0.9521300000000000
