Na Mo  N  S 
 1.0000000000000000
     3.3029999999999999    0.0000000000000000    0.0000000000000000
    -1.6514999999999991    2.8604819087000011    0.0000000000000000
     0.0000000000000000    0.0000000000000000   25.8299999999999983
 Na  Mo  N   S  
   3   6   3   6
Direct
  0.0000000000000000  0.0000000000000000  0.0000000000000000
  0.6666800000000001  0.3333200000000000  0.3335500000000001
  0.3333200000000000  0.6666800000000001  0.6664500000000000
  0.0000300000000000  0.9999700000000000  0.8615900000000000
  0.9999699999999998  0.0000300000000000  0.1384100000000000
  0.6666999999999998  0.3333000000000000  0.1955100000000000
  0.6666600000000000  0.3333400000000000  0.4715200000000000
  0.3333400000000000  0.6666600000000000  0.5284799999999999
  0.3332999999999999  0.6667000000000000  0.8044900000000000
  0.0000000000000000  0.0000000000000000  0.5000000000000000
  0.6666600000000000  0.3333400000000000  0.8356600000000000
  0.3333400000000000  0.6666600000000000  0.1643400000000000
  0.9999600000000000  0.0000400000000000  0.7554600000000000
  0.0000400000000001  0.9999600000000000  0.2445400000000000
  0.6666299999999999  0.3333700000000000  0.0879800000000000
  0.6666700000000000  0.3333300000000000  0.5780999999999999
  0.3333300000000000  0.6666700000000000  0.4219000000000001
  0.3333700000000000  0.6666299999999999  0.9120200000000002
