Os Se  P 
 1.0000000000000000
     3.2709999999999999    0.0000000000000000    0.0000000000000000
    -1.6354999999999993    2.8327690957788989    0.0000000000000000
     0.0000000000000000    0.0000000000000000   25.4780000000000015
 Os  Se  P  
   6   6   3
Direct
  0.8415400000000000  0.1584600000000000  0.6264000000000000
  0.1584599999999999  0.8415399999999997  0.3736000000000000
  0.6991500000000000  0.3008500000000000  0.9561400000000000
  0.6224400000000000  0.3775600000000000  0.7168700000000000
  0.3775600000000000  0.6224399999999999  0.2831300000000000
  0.3008500000000001  0.6991500000000000  0.0438600000000000
  0.9193300000000000  0.0806700000000000  0.7744500000000000
  0.0806700000000000  0.9193300000000000  0.2255500000000000
  0.7834300000000000  0.2165700000000000  0.1060900000000000
  0.3528300000000000  0.6471700000000000  0.5563600000000000
  0.6471700000000000  0.3528300000000000  0.4436400000000000
  0.2165700000000000  0.7834300000000000  0.8939100000000000
 -0.0000000000000001  0.9999999999999998  0.0000000000000000
  0.8372699999999998  0.1627300000000000  0.3364499999999999
  0.1627300000000000  0.8372699999999998  0.6635500000000000
