Rh  S  P 
 1.0000000000000000
     3.2709999999999999    0.0000000000000000    0.0000000000000000
    -1.6354999999999993    2.8327690957788989    0.0000000000000000
     0.0000000000000000    0.0000000000000000   25.4780000000000015
 Rh  S   P  
   6   6   3
Direct
  0.1332200000000000  0.8667800000000000  0.6166199999999999
  0.8667799999999999  0.1332200000000000  0.3833800000000000
  0.6940900000000000  0.3059100000000000  0.9575200000000000
  0.7566300000000000  0.2433700000000000  0.7049299999999998
  0.2433699999999999  0.7566299999999998  0.2950700000000000
  0.3059100000000000  0.6940900000000000  0.0424800000000000
  0.9301199999999999  0.0698800000000000  0.7829700000000001
  0.0698800000000000  0.9301199999999999  0.2170300000000000
  0.8040700000000000  0.1959300000000000  0.1059600000000000
  0.6445700000000000  0.3554300000000000  0.5581400000000000
  0.3554299999999999  0.6445699999999999  0.4418599999999999
  0.1959300000000000  0.8040699999999998  0.8940399999999999
  0.0000000000000000  0.0000000000000000  0.0000000000000000
  0.5712800000000000  0.4287200000000000  0.3353300000000000
  0.4287199999999999  0.5712799999999999  0.6646700000000000
