Pt  S In 
 1.0000000000000000
     3.2690000000000001    0.0000000000000000    0.0000000000000000
    -1.6344999999999994    2.8310370449713305    0.0000000000000000
     0.0000000000000000    0.0000000000000000    8.5470000000000006
 Pt  S   In 
   2   2   1
Direct
  0.6667600000000000  0.3333800000000000  0.7269500000000000
  0.3332399999999999  0.6666200000000000  0.2730500000000000
  0.6667199999999998  0.3333600000000000  0.4512800000000000
  0.3332800000000001  0.6666400000000001  0.5487200000000000
  0.0000000000000000  0.0000000000000000  0.0000000000000000
