Cr Rh  C  S
 1.0000000000000000
     3.3029999999999999    0.0000000000000000    0.0000000000000000
    -1.6514999999999991    2.8604819087000011    0.0000000000000000
     0.0000000000000000    0.0000000000000000   25.8299999999999983
 Cr  Rh  C   S
   3   6   3   6
Direct
  0.0000000000000000  0.0000000000000000  0.0000000000000000
  0.6666700000000000  0.3333300000000000  0.3333300000000001
  0.3333300000000000  0.6666700000000000  0.6666700000000001
  0.0000000000000000  0.0000000000000000  0.8714900000000000
  0.0000000000000000  0.0000000000000000  0.1285100000000000
  0.6666700000000000  0.3333300000000000  0.2048300000000000
  0.6666700000000000  0.3333300000000000  0.4618400000000000
  0.3333300000000000  0.6666700000000000  0.5381600000000000
  0.3333300000000000  0.6666700000000000  0.7951700000000000
  0.0000000000000000  0.0000000000000000  0.5000000000000000
  0.6666700000000000  0.3333300000000000  0.8333300000000000
  0.3333300000000000  0.6666700000000000  0.1666700000000000
  0.0000000000000000  0.0000000000000000  0.7202200000000000
  0.0000000000000000  0.0000000000000000  0.2797800000000000
  0.6666700000000000  0.3333300000000000  0.0535500000000000
  0.6666600000000000  0.3333400000000000  0.6131100000000000
  0.3333400000000000  0.6666600000000000  0.3868900000000000
  0.3333300000000000  0.6666700000000000  0.9464500000000000
