Os Si  S 
 1.0000000000000000
     3.3435999999999999    0.0000000000000000    0.0000000000000000
    -1.6717999999999993    2.8956425400936490    0.0000000000000000
     0.0000000000000000    0.0000000000000000   11.5808999999999997
 Os  Si  S  
   4   2   2
Direct
  0.2879999999999999  0.7119999999999997  0.3692900000000000
  0.7120000000000000  0.2880000000000000  0.6307100000000000
  0.7120200000000000  0.2879800000000000  0.8692600000000000
  0.2879800000000000  0.7120200000000000  0.1307400000000000
  0.0000000000000000  0.0000000000000000  0.0000000000000000
  0.0000000000000000  0.0000000000000000  0.5000000000000000
  0.2454500000000000  0.7545500000000001  0.7499900000000002
  0.7545500000000001  0.2454500000000000  0.2500100000000000
