Cr Rh  C Se
 1.0000000000000000
     3.3029999999999999    0.0000000000000000    0.0000000000000000
    -1.6514999999999993    2.8604819087000011    0.0000000000000000
     0.0000000000000000    0.0000000000000000   25.8299999999999983
 Cr  Rh  C   Se
   3   6   3   6
Direct
  0.0000000000000000  0.0000000000000000  0.0000000000000000
  0.6143300000000000  0.3856700000000000  0.3682400000000000
  0.3856700000000000  0.6143300000000000  0.6317600000000000
  0.1868800000000000  0.8131200000000000  0.8522999999999999
  0.8131200000000000  0.1868800000000000  0.1477000000000000
  0.2652299999999999  0.7347700000000000  0.2344900000000000
  0.6187000000000000  0.3813000000000000  0.4594700000000000
  0.3813000000000000  0.6187000000000000  0.5405300000000000
  0.7347700000000000  0.2652300000000000  0.7655100000000000
  0.0000000000000000  0.0000000000000000  0.5000000000000000
  0.8547400000000001  0.1452600000000000  0.8442000000000000
  0.1452600000000000  0.8547400000000001  0.1558000000000000
  0.3906600000000000  0.6093400000000000  0.7157000000000000
  0.6093400000000000  0.3906600000000000  0.2843000000000000
  0.6405900000000000  0.3594100000000001  0.0451000000000000
  0.7175400000000000  0.2824600000000000  0.6024500000000000
  0.2824600000000000  0.7175400000000001  0.3975500000000000
  0.3594100000000000  0.6405900000000000  0.9549000000000000
