Zn Te Pb 
 1.0000000000000000
     3.2709999999999999    0.0000000000000000    0.0000000000000000
    -1.6354999999999993    2.8327690957788989    0.0000000000000000
     0.0000000000000000    0.0000000000000000   25.4780000000000015
 Zn  Te  Pb 
   6   6   3
Direct
  0.0000000000000000  0.0000000000000000  0.5866800000000000
  0.9999999999999997  0.9999999999999998  0.4133200000000000
  0.6666700000000000  0.3333300000000000  0.9200100000000000
  0.6666700000000000  0.3333300000000000  0.7466600000000000
  0.3333300000000000  0.6666700000000000  0.2533400000000000
  0.3333300000000000  0.6666700000000000  0.0799900000000000
  0.9999999999999997  0.9999999999999998  0.8034600000000000
  0.0000000000000000  0.0000000000000000  0.1965400000000000
  0.6666700000000000  0.3333300000000000  0.1367900000000000
  0.6666700000000000  0.3333300000000000  0.5298700000000000
  0.3333300000000000  0.6666700000000000  0.4701300000000000
  0.3333300000000000  0.6666700000000000  0.8632100000000000
  0.0000000000000000  0.0000000000000000  0.0000000000000000
  0.6666700000000000  0.3333300000000000  0.3333300000000000
  0.3333300000000000  0.6666700000000000  0.6666699999999999
