Ti Co  C  S
 1.0000000000000000
     3.3029999999999999    0.0000000000000000    0.0000000000000000
    -1.6514999999999993    2.8604819087000011    0.0000000000000000
     0.0000000000000000    0.0000000000000000   25.8299999999999983
 Ti  Co  C   S
   3   6   3   6
Direct
  0.0000000000000000  0.0000000000000000  0.0000000000000000
  0.6666700000000000  0.3333300000000000  0.3349700000000000
  0.3333300000000000  0.6666700000000000  0.6650300000000000
  0.0000000000000000  0.0000000000000000  0.8644100000000000
  0.0000000000000000  0.0000000000000000  0.1355900000000000
  0.6666700000000000  0.3333300000000000  0.1976900000000000
  0.6666700000000000  0.3333300000000000  0.4685100000000000
  0.3333300000000000  0.6666700000000000  0.5314900000000000
  0.3333300000000000  0.6666700000000000  0.8023100000000001
  0.0000000000000000  0.0000000000000000  0.5000000000000000
  0.6666700000000000  0.3333300000000000  0.8330400000000002
  0.3333300000000000  0.6666700000000000  0.1669600000000000
  0.0000000000000000  0.0000000000000000  0.7246899999999999
  0.0000000000000000  0.0000000000000000  0.2753100000000000
  0.6666700000000000  0.3333300000000000  0.0598200000000000
  0.6666700000000000  0.3333300000000000  0.6051100000000000
  0.3333300000000000  0.6666700000000000  0.3948900000000000
  0.3333300000000000  0.6666700000000000  0.9401800000000000
