Co Ni  N Se 
 1.0000000000000000
     3.3029999999999999    0.0000000000000000    0.0000000000000000
    -1.6514999999999991    2.8604819087000011    0.0000000000000000
     0.0000000000000000    0.0000000000000000   25.8299999999999983
 Co  Ni  N   Se 
   3   6   3   6
Direct
  0.0000000000000000  0.0000000000000000  0.0000000000000000
  0.6666700000000000  0.3333300000000000  0.3333100000000000
  0.3333300000000000  0.6666700000000000  0.6666900000000001
  0.9999899999999998  0.0000100000000000  0.8749800000000001
  0.0000100000000001  0.9999900000000002  0.1250200000000000
  0.6666600000000000  0.3333400000000000  0.2082800000000000
  0.6666700000000000  0.3333300000000000  0.4583600000000000
  0.3333300000000000  0.6666700000000000  0.5416400000000000
  0.3333400000000000  0.6666600000000000  0.7917200000000000
  0.0000000000000000  0.0000000000000000  0.5000000000000000
  0.6666800000000001  0.3333200000000000  0.8337000000000001
  0.3333200000000000  0.6666800000000001  0.1663000000000000
  0.0000200000000001  0.9999800000000001  0.7225100000000001
  0.9999800000000000  0.0000200000000000  0.2774900000000000
  0.6666900000000000  0.3333100000000000  0.0557300000000000
  0.6666400000000000  0.3333600000000000  0.6108900000000000
  0.3333600000000000  0.6666400000000000  0.3891100000000000
  0.3333099999999999  0.6666900000000000  0.9442700000000002
