Cr Ag  N  S 
 1.0000000000000000
     3.3029999999999999    0.0000000000000000    0.0000000000000000
    -1.6514999999999991    2.8604819087000011    0.0000000000000000
     0.0000000000000000    0.0000000000000000   25.8299999999999983
 Cr  Ag  N   S  
   3   6   3   6
Direct
  0.0000000000000000  0.0000000000000000  0.0000000000000000
  0.5996499999999999  0.4003500000000000  0.3183700000000000
  0.4003500000000000  0.5996500000000000  0.6816300000000002
  0.1198300000000000  0.8801700000000000  0.8900100000000000
  0.8801700000000000  0.1198300000000000  0.1099900000000000
  0.5251000000000000  0.4749000000000000  0.2252500000000000
  0.5480600000000000  0.4519400000000000  0.4452100000000000
  0.4519400000000000  0.5480600000000000  0.5547900000000000
  0.4749000000000000  0.5251000000000000  0.7747500000000000
  0.0000000000000000  0.0000000000000000  0.5000000000000000
  0.9452999999999999  0.0547000000000000  0.8259300000000001
  0.0547000000000000  0.9453000000000001  0.1740700000000000
  0.0786100000000000  0.9213900000000000  0.7060700000000001
  0.9213900000000000  0.0786100000000000  0.2939300000000000
  0.6582099999999997  0.3417900000000000  0.0398700000000000
  0.8984799999999999  0.1015200000000000  0.6183900000000000
  0.1015200000000000  0.8984799999999999  0.3816100000000000
  0.3417900000000000  0.6582100000000000  0.9601300000000000
