Fe Ti  C Te
 1.0000000000000000
     3.3029999999999999    0.0000000000000000    0.0000000000000000
    -1.6514999999999993    2.8604819087000011    0.0000000000000000
     0.0000000000000000    0.0000000000000000   25.8299999999999983
 Fe  Ti  C   Te
   3   6   3   6
Direct
  0.0000000000000000  0.0000000000000000  0.0000000000000000
  0.6666600000000000  0.3333400000000000  0.3333300000000001
  0.3333400000000000  0.6666600000000000  0.6666700000000001
  0.9999899999999998  0.0000100000000000  0.8569900000000000
  0.0000100000000001  0.9999900000000002  0.1430100000000000
  0.6666800000000001  0.3333200000000000  0.1903100000000000
  0.6666700000000000  0.3333300000000000  0.4763500000000001
  0.3333300000000000  0.6666700000000000  0.5236499999999999
  0.3333200000000000  0.6666800000000001  0.8096900000000001
  0.0000000000000000  0.0000000000000000  0.5000000000000000
  0.6666600000000000  0.3333400000000000  0.8333300000000000
  0.3333400000000000  0.6666600000000000  0.1666700000000000
  0.0000200000000001  0.9999800000000001  0.7229600000000000
  0.9999800000000000  0.0000200000000000  0.2770400000000000
  0.6666600000000000  0.3333400000000000  0.0562900000000000
  0.6666600000000000  0.3333400000000000  0.6103700000000000
  0.3333400000000000  0.6666600000000000  0.3896300000000000
  0.3333400000000000  0.6666600000000000  0.9437100000000000
