Sc  S In 
 1.0000000000000000
     3.2709999999999999    0.0000000000000000    0.0000000000000000
    -1.6354999999999993    2.8327690957788989    0.0000000000000000
     0.0000000000000000    0.0000000000000000   25.4780000000000015
 Sc  S   In 
   6   6   3
Direct
  0.9999999999999997  0.9999999999999998  0.5703600000000000
  0.0000000000000000  0.0000000000000000  0.4296400000000000
  0.6666600000000000  0.3333400000000000  0.9037099999999998
  0.6666600000000000  0.3333400000000000  0.7629700000000000
  0.3333400000000000  0.6666600000000000  0.2370300000000000
  0.3333400000000000  0.6666600000000000  0.0962900000000000
  0.0000100000000000  0.9999899999999999  0.7848600000000000
  0.9999900000000000  0.0000100000000000  0.2151400000000000
  0.6666800000000001  0.3333199999999999  0.1181800000000000
  0.6666600000000000  0.3333400000000000  0.5484800000000000
  0.3333400000000000  0.6666600000000000  0.4515200000000000
  0.3333199999999999  0.6666800000000001  0.8818200000000000
  0.0000000000000000  0.0000000000000000  0.0000000000000000
  0.6666700000000000  0.3333300000000000  0.3333300000000000
  0.3333300000000000  0.6666700000000000  0.6666699999999999
