Ti  V  N  S 
 1.0000000000000000
     3.3029999999999999    0.0000000000000000    0.0000000000000000
    -1.6514999999999991    2.8604819087000011    0.0000000000000000
     0.0000000000000000    0.0000000000000000   25.8299999999999983
 Ti  V   N   S  
   3   6   3   6
Direct
  0.0000000000000000  0.0000000000000000  0.0000000000000000
  0.7594299999999998  0.2405700000000000  0.2984900000000000
  0.2405700000000000  0.7594300000000000  0.7015100000000000
  0.0003100000000000  0.9996900000000000  0.9144200000000000
  0.9996900000000000  0.0003100000000000  0.0855800000000000
  0.6662400000000001  0.3337600000000000  0.1366500000000000
  0.6658699999999999  0.3341300000000000  0.4765900000000000
  0.3341300000000000  0.6658700000000000  0.5234100000000000
  0.3337600000000000  0.6662400000000001  0.8633500000000000
  0.0000000000000000  0.0000000000000000  0.5000000000000000
  0.6671500000000000  0.3328500000000000  0.8598900000000000
  0.3328500000000000  0.6671500000000000  0.1401100000000000
  0.9292699999999999  0.0707300000000000  0.7300400000000000
  0.0707300000000000  0.9292700000000000  0.2699600000000000
  0.6664500000000000  0.3335500000000000  0.0445100000000000
  0.7219200000000000  0.2780800000000000  0.6463800000000000
  0.2780799999999999  0.7219200000000000  0.3536200000000000
  0.3335500000000000  0.6664500000000000  0.9554900000000000
