Mo Se Bi 
 1.0000000000000000
     3.2690000000000001    0.0000000000000000    0.0000000000000000
    -1.6344999999999994    2.8310370449713305    0.0000000000000000
     0.0000000000000000    0.0000000000000000    8.5470000000000006
 Mo  Se  Bi 
   2   2   1
Direct
  0.6656099999999999  0.3328100000000000  0.7498800000000000
  0.3343900000000001  0.6671900000000001  0.2501200000000000
  0.6675299999999997  0.3337700000000000  0.3435700000000000
  0.3324699999999999  0.6662300000000000  0.6564300000000000
  0.0000000000000000  0.0000000000000000  0.0000000000000000
