Os Se Sb 
 1.0000000000000000
     3.2690000000000001    0.0000000000000000    0.0000000000000000
    -1.6344999999999994    2.8310370449713305    0.0000000000000000
     0.0000000000000000    0.0000000000000000    8.5470000000000006
 Os  Se  Sb 
   2   2   1
Direct
  0.6667700000000000  0.3333900000000001  0.7933000000000000
  0.3332300000000001  0.6666100000000001  0.2067000000000000
  0.6667299999999998  0.3333700000000000  0.3454700000000000
  0.3332700000000000  0.6666300000000001  0.6545299999999999
  0.0000000000000000  0.0000000000000000  0.0000000000000000
