Re Se Pb 
 1.0000000000000000
     3.2690000000000001    0.0000000000000000    0.0000000000000000
    -1.6344999999999994    2.8310370449713305    0.0000000000000000
     0.0000000000000000    0.0000000000000000    8.5470000000000006
 Re  Se  Pb 
   2   2   1
Direct
  0.6666399999999999  0.3333200000000001  0.7663700000000000
  0.3333599999999999  0.6666800000000001  0.2336300000000000
  0.6666899999999998  0.3333400000000000  0.3494500000000000
  0.3333100000000000  0.6666600000000000  0.6505500000000000
  0.0000000000000000  0.0000000000000000  0.0000000000000000
