Zn Pt  N  S 
 1.0000000000000000
     3.3029999999999999    0.0000000000000000    0.0000000000000000
    -1.6514999999999991    2.8604819087000011    0.0000000000000000
     0.0000000000000000    0.0000000000000000   25.8299999999999983
 Zn  Pt  N   S  
   3   6   3   6
Direct
  0.0000000000000000  0.0000000000000000  0.0000000000000000
  0.6666700000000000  0.3333300000000000  0.3333400000000001
  0.3333300000000000  0.6666700000000000  0.6666600000000001
  0.0000000000000000  0.0000000000000000  0.8732300000000000
  0.0000000000000000  0.0000000000000000  0.1267700000000000
  0.6666700000000000  0.3333300000000000  0.2064500000000000
  0.6666700000000000  0.3333300000000000  0.4601600000000000
  0.3333300000000000  0.6666700000000000  0.5398400000000000
  0.3333300000000000  0.6666700000000000  0.7935500000000000
  0.0000000000000000  0.0000000000000000  0.5000000000000000
  0.6666700000000000  0.3333300000000000  0.8335399999999999
  0.3333300000000000  0.6666700000000000  0.1664600000000000
  0.0000000000000000  0.0000000000000000  0.7503800000000000
  0.0000000000000000  0.0000000000000000  0.2496200000000000
  0.6666700000000000  0.3333300000000000  0.0837000000000000
  0.6666700000000000  0.3333300000000000  0.5829600000000000
  0.3333300000000000  0.6666700000000000  0.4170400000000001
  0.3333300000000000  0.6666700000000000  0.9163000000000000
