Hg Se Sn 
 1.0000000000000000
     3.2690000000000001    0.0000000000000000    0.0000000000000000
    -1.6344999999999994    2.8310370449713305    0.0000000000000000
     0.0000000000000000    0.0000000000000000    8.5470000000000006
 Hg  Se  Sn 
   2   2   1
Direct
  0.7097400000000000  0.3548700000000000  0.7485300000000000
  0.2902600000000001  0.6451300000000001  0.2514700000000000
  0.6234300000000000  0.3117100000000000  0.4465500000000000
  0.3765700000000000  0.6882900000000000  0.5534500000000000
  0.0000000000000000  0.0000000000000000  0.0000000000000000
