Hg  S  N 
 1.0000000000000000
     3.2709999999999999    0.0000000000000000    0.0000000000000000
    -1.6354999999999991    2.8327690957788989    0.0000000000000000
     0.0000000000000000    0.0000000000000000   25.4780000000000015
 Hg  S   N  
   6   6   3
Direct
  0.0000000000000000  0.0000000000000000  0.6095699999999999
  0.9999999999999997  0.9999999999999998  0.3904300000000000
  0.6666600000000000  0.3333400000000000  0.9429000000000000
  0.6666700000000000  0.3333300000000000  0.7237600000000000
  0.3333300000000000  0.6666700000000000  0.2762400000000000
  0.3333400000000000  0.6666600000000000  0.0571000000000000
  0.0000099999999999  0.9999899999999999  0.8017100000000000
  0.9999900000000000  0.0000100000000000  0.1982900000000000
  0.6666700000000000  0.3333300000000000  0.1350400000000000
  0.6666700000000000  0.3333300000000000  0.5316300000000000
  0.3333300000000000  0.6666700000000000  0.4683700000000000
  0.3333300000000000  0.6666700000000000  0.8649600000000000
  0.0000000000000000  0.0000000000000000  0.0000000000000000
  0.6666700000000000  0.3333300000000000  0.3333400000000000
  0.3333300000000000  0.6666700000000000  0.6666599999999999
