Cd  S Sb 
 1.0000000000000000
     3.2690000000000001    0.0000000000000000    0.0000000000000000
    -1.6344999999999994    2.8310370449713305    0.0000000000000000
     0.0000000000000000    0.0000000000000000    8.5470000000000006
 Cd  S   Sb 
   2   2   1
Direct
  0.9999399999999998  0.4999700000000000  0.7452900000000000
  0.0000600000000000  0.5000300000000000  0.2547100000000000
  0.6389800000000000  0.3194900000000000  0.4999900000000000
  0.3610200000000000  0.6805100000000001  0.5000100000000000
  0.0000000000000000  0.0000000000000000  0.0000000000000000
