Ti Hg  C  S
 1.0000000000000000
     3.3029999999999999    0.0000000000000000    0.0000000000000000
    -1.6514999999999991    2.8604819087000011    0.0000000000000000
     0.0000000000000000    0.0000000000000000   25.8299999999999983
 Ti  Hg  C   S
   3   6   3   6
Direct
  0.0000000000000000  0.0000000000000000  0.0000000000000000
  0.6666700000000000  0.3333300000000000  0.3333300000000001
  0.3333300000000000  0.6666700000000000  0.6666700000000001
  0.0000000000000000  0.0000000000000000  0.8803600000000000
  0.0000000000000000  0.0000000000000000  0.1196400000000000
  0.6666700000000000  0.3333300000000000  0.2136900000000000
  0.6666700000000000  0.3333300000000000  0.4529800000000000
  0.3333300000000000  0.6666700000000000  0.5470200000000000
  0.3333300000000000  0.6666700000000000  0.7863100000000001
  0.0000000000000000  0.0000000000000000  0.5000000000000000
  0.6666700000000000  0.3333300000000000  0.8333300000000000
  0.3333300000000000  0.6666700000000000  0.1666700000000000
  0.0000000000000000  0.0000000000000000  0.7180100000000000
  0.0000000000000000  0.0000000000000000  0.2819900000000000
  0.6666700000000000  0.3333300000000000  0.0513500000000000
  0.6666700000000000  0.3333300000000000  0.6153200000000000
  0.3333300000000000  0.6666700000000000  0.3846800000000000
  0.3333300000000000  0.6666700000000000  0.9486500000000000
