Ru  S As 
 1.0000000000000000
     3.2709999999999999    0.0000000000000000    0.0000000000000000
    -1.6354999999999993    2.8327690957788989    0.0000000000000000
     0.0000000000000000    0.0000000000000000   25.4780000000000015
 Ru  S   As 
   6   6   3
Direct
  0.1333399999999999  0.8666599999999999  0.5993800000000000
  0.8666600000000000  0.1333400000000000  0.4006200000000000
  0.6951700000000000  0.3048299999999999  0.9528799999999999
  0.5767499999999999  0.4232500000000000  0.7588000000000000
  0.4232500000000000  0.5767500000000000  0.2412000000000000
  0.3048299999999999  0.6951699999999998  0.0471200000000000
  0.9104300000000000  0.0895700000000000  0.7860200000000001
  0.0895699999999999  0.9104299999999997  0.2139800000000000
  0.7895100000000000  0.2104900000000000  0.1024200000000000
  0.6484100000000000  0.3515900000000000  0.5116700000000000
  0.3515900000000000  0.6484100000000000  0.4883300000000000
  0.2104900000000001  0.7895100000000000  0.8975799999999999
  0.0000000000000000  0.0000000000000000  0.0000000000000000
  0.5337999999999999  0.4661999999999999  0.3659700000000000
  0.4661999999999999  0.5338000000000001  0.6340299999999999
