Mo Se Si 
 1.0000000000000000
     3.2690000000000001    0.0000000000000000    0.0000000000000000
    -1.6344999999999994    2.8310370449713305    0.0000000000000000
     0.0000000000000000    0.0000000000000000    8.5470000000000006
 Mo  Se  Si 
   2   2   1
Direct
  0.6665300000000000  0.3332600000000000  0.8738799999999999
  0.3334699999999999  0.6667400000000000  0.1261200000000000
  0.6663600000000000  0.3331800000000000  0.3162000000000000
  0.3336400000000000  0.6668200000000000  0.6838000000000000
  0.0000000000000000  0.0000000000000000  0.0000000000000000
