Mg Cr  C Se
 1.0000000000000000
     3.3029999999999999    0.0000000000000000    0.0000000000000000
    -1.6514999999999991    2.8604819087000011    0.0000000000000000
     0.0000000000000000    0.0000000000000000   25.8299999999999983
 Mg  Cr  C   Se
   3   6   3   6
Direct
  0.0000000000000000  0.0000000000000000  0.0000000000000000
  0.6666700000000000  0.3333300000000000  0.3333300000000001
  0.3333300000000000  0.6666700000000000  0.6666700000000001
  0.0000000000000000  0.0000000000000000  0.8662300000000001
  0.0000000000000000  0.0000000000000000  0.1337700000000000
  0.6666700000000000  0.3333300000000000  0.1995700000000000
  0.6666700000000000  0.3333300000000000  0.4670900000000000
  0.3333300000000000  0.6666700000000000  0.5329100000000000
  0.3333300000000000  0.6666700000000000  0.8004300000000001
  0.0000000000000000  0.0000000000000000  0.5000000000000000
  0.6666700000000000  0.3333300000000000  0.8333300000000000
  0.3333300000000000  0.6666700000000000  0.1666700000000000
  0.0000000000000000  0.0000000000000000  0.7350100000000001
  0.0000000000000000  0.0000000000000000  0.2649900000000000
  0.6666700000000000  0.3333300000000000  0.0683500000000000
  0.6666600000000000  0.3333400000000000  0.5983300000000000
  0.3333400000000000  0.6666600000000000  0.4016700000000001
  0.3333300000000000  0.6666700000000000  0.9316500000000001
