Os Se  P 
 1.0000000000000000
     3.2690000000000001    0.0000000000000000    0.0000000000000000
    -1.6344999999999994    2.8310370449713305    0.0000000000000000
     0.0000000000000000    0.0000000000000000    8.5470000000000006
 Os  Se  P  
   2   2   1
Direct
  0.5997600000000000  0.2998800000000000  0.8686800000000000
  0.4002399999999999  0.7001200000000000  0.1313200000000000
  0.4211099999999999  0.2105500000000000  0.3180000000000000
  0.5788900000000000  0.7894500000000000  0.6820000000000001
  0.0000000000000000  0.0000000000000000  0.0000000000000000
