Re Te Ga 
 1.0000000000000000
     3.2709999999999999    0.0000000000000000    0.0000000000000000
    -1.6354999999999993    2.8327690957788989    0.0000000000000000
     0.0000000000000000    0.0000000000000000   25.4780000000000015
 Re  Te  Ga 
   6   6   3
Direct
  0.9999800000000000  0.0000200000000000  0.6122400000000000
  0.0000199999999999  0.9999799999999998  0.3877599999999999
  0.6666700000000000  0.3333300000000000  0.9455799999999999
  0.6667000000000000  0.3333000000000000  0.7210800000000001
  0.3332999999999999  0.6667000000000000  0.2789200000000000
  0.3333300000000000  0.6666700000000000  0.0544200000000000
  0.9999999999999997  0.9999999999999998  0.7738400000000000
  0.0000000000000000  0.0000000000000000  0.2261600000000000
  0.6666500000000000  0.3333500000000000  0.1071700000000000
  0.6666700000000000  0.3333300000000000  0.5594900000000000
  0.3333300000000000  0.6666700000000000  0.4405100000000000
  0.3333499999999999  0.6666499999999999  0.8928299999999998
  0.0000000000000000  0.0000000000000000  0.0000000000000000
  0.6666800000000001  0.3333199999999999  0.3333300000000000
  0.3333199999999999  0.6666800000000001  0.6666699999999999
