Ir Se Ga 
 1.0000000000000000
     3.2690000000000001    0.0000000000000000    0.0000000000000000
    -1.6344999999999994    2.8310370449713305    0.0000000000000000
     0.0000000000000000    0.0000000000000000    8.5470000000000006
 Ir  Se  Ga 
   2   2   1
Direct
  0.9314999999999998  0.4657500000000000  0.7549900000000000
  0.0685000000000000  0.5342500000000001  0.2450100000000000
  0.4512199999999999  0.2256100000000000  0.3963100000000000
  0.5487800000000000  0.7743900000000000  0.6036899999999999
  0.0000000000000000  0.0000000000000000  0.0000000000000000
