Cr Ti  N Se 
 1.0000000000000000
     3.3029999999999999    0.0000000000000000    0.0000000000000000
    -1.6514999999999991    2.8604819087000011    0.0000000000000000
     0.0000000000000000    0.0000000000000000   25.8299999999999983
 Cr  Ti  N   Se 
   3   6   3   6
Direct
  0.0000000000000000  0.0000000000000000  0.0000000000000000
  0.6172299999999999  0.3827700000000000  0.3318300000000000
  0.3827699999999999  0.6172299999999999  0.6681700000000000
  0.0364900000000000  0.9635100000000000  0.8690200000000000
  0.9635099999999998  0.0364900000000000  0.1309800000000000
  0.6284999999999999  0.3715000000000000  0.1798100000000000
  0.6670399999999997  0.3329600000000000  0.4760700000000000
  0.3329600000000000  0.6670400000000000  0.5239300000000000
  0.3715000000000000  0.6284999999999999  0.8201900000000000
  0.0000000000000000  0.0000000000000000  0.5000000000000000
  0.7009099999999998  0.2990900000000000  0.8435600000000000
  0.2990899999999999  0.7009100000000000  0.1564400000000000
  0.8657499999999999  0.1342500000000000  0.7323700000000000
  0.1342500000000000  0.8657500000000000  0.2676300000000000
  0.6655700000000000  0.3344300000000000  0.0468600000000000
  0.6998199999999999  0.3001800000000000  0.6363200000000000
  0.3001800000000000  0.6998200000000001  0.3636800000000000
  0.3344300000000000  0.6655700000000000  0.9531400000000001
