Ti Ir  C  S
 1.0000000000000000
     3.3029999999999999    0.0000000000000000    0.0000000000000000
    -1.6514999999999991    2.8604819087000011    0.0000000000000000
     0.0000000000000000    0.0000000000000000   25.8299999999999983
 Ti  Ir  C   S
   3   6   3   6
Direct
  0.0000000000000000  0.0000000000000000  0.0000000000000000
  0.6666700000000000  0.3333300000000000  0.3333300000000001
  0.3333300000000000  0.6666700000000000  0.6666700000000001
  0.0000000000000000  0.0000000000000000  0.8727000000000000
  0.0000000000000000  0.0000000000000000  0.1273000000000000
  0.6666700000000000  0.3333300000000000  0.2060300000000000
  0.6666700000000000  0.3333300000000000  0.4606300000000000
  0.3333300000000000  0.6666700000000000  0.5393700000000000
  0.3333300000000000  0.6666700000000000  0.7939700000000000
  0.0000000000000000  0.0000000000000000  0.5000000000000000
  0.6666700000000000  0.3333300000000000  0.8333300000000000
  0.3333300000000000  0.6666700000000000  0.1666700000000000
  0.0000000000000000  0.0000000000000000  0.7253300000000000
  0.0000000000000000  0.0000000000000000  0.2746700000000000
  0.6666700000000000  0.3333300000000000  0.0586600000000000
  0.6666700000000000  0.3333300000000000  0.6080100000000001
  0.3333300000000000  0.6666700000000000  0.3919900000000001
  0.3333300000000000  0.6666700000000000  0.9413400000000001
