 Y Te  P 
 1.0000000000000000
     3.2709999999999999    0.0000000000000000    0.0000000000000000
    -1.6354999999999993    2.8327690957788989    0.0000000000000000
     0.0000000000000000    0.0000000000000000   25.4780000000000015
 Y   Te  P  
   6   6   3
Direct
  0.7713500000000000  0.2286499999999999  0.6356299999999999
  0.2286500000000000  0.7713500000000000  0.3643700000000000
  0.6664400000000000  0.3335600000000000  0.9695600000000000
  0.4334100000000000  0.5665900000000000  0.6970999999999999
  0.5665900000000000  0.4334100000000000  0.3029000000000000
  0.3335600000000000  0.6664399999999999  0.0304400000000000
  0.7098600000000000  0.2901400000000000  0.7770600000000000
  0.2901400000000000  0.7098600000000000  0.2229400000000000
  0.9976000000000000  0.0024000000000000  0.1063400000000000
  0.3313999999999999  0.6686000000000000  0.5596300000000000
  0.6685999999999999  0.3313999999999999  0.4403700000000000
  0.0024000000000000  0.9975999999999999  0.8936600000000000
  0.9999999999999997  0.9999999999999998  0.0000000000000000
  0.9021500000000000  0.0978500000000000  0.3355300000000000
  0.0978499999999999  0.9021499999999999  0.6644699999999999
