Cr Pd  C Te
 1.0000000000000000
     3.3029999999999999    0.0000000000000000    0.0000000000000000
    -1.6514999999999993    2.8604819087000011    0.0000000000000000
     0.0000000000000000    0.0000000000000000   25.8299999999999983
 Cr  Pd  C   Te
   3   6   3   6
Direct
  0.0000000000000000  0.0000000000000000  0.0000000000000000
  0.8600600000000000  0.1399400000000000  0.3255600000000000
  0.1399400000000001  0.8600600000000000  0.6744400000000002
  0.0117100000000000  0.9882900000000000  0.8775800000000000
  0.9882899999999998  0.0117100000000000  0.1224200000000000
  0.6538500000000000  0.3461500000000000  0.2015700000000000
  0.6792099999999998  0.3207900000000000  0.4579200000000000
  0.3207900000000000  0.6792100000000000  0.5420800000000000
  0.3461500000000000  0.6538500000000000  0.7984300000000000
  0.0000000000000000  0.0000000000000000  0.5000000000000000
  0.6511400000000001  0.3488600000000000  0.8324300000000001
  0.3488599999999999  0.6511400000000001  0.1675700000000000
  0.8246000000000000  0.1754000000000000  0.7179200000000000
  0.1754000000000000  0.8246000000000000  0.2820800000000000
  0.6609300000000000  0.3390700000000000  0.0552800000000000
  0.6366700000000000  0.3633300000000000  0.6082700000000000
  0.3633300000000000  0.6366700000000000  0.3917300000000000
  0.3390700000000000  0.6609300000000000  0.9447200000000000
