Li Os  C  S
 1.0000000000000000
     3.3029999999999999    0.0000000000000000    0.0000000000000000
    -1.6514999999999991    2.8604819087000011    0.0000000000000000
     0.0000000000000000    0.0000000000000000   25.8299999999999983
 Li  Os  C   S
   3   6   3   6
Direct
  0.0000000000000000  0.0000000000000000  0.0000000000000000
  0.6666700000000000  0.3333300000000000  0.3333300000000001
  0.3333300000000000  0.6666700000000000  0.6666700000000001
  0.0000000000000000  0.0000000000000000  0.8689100000000000
  0.0000000000000000  0.0000000000000000  0.1310900000000000
  0.6666700000000000  0.3333300000000000  0.2022400000000000
  0.6666700000000000  0.3333300000000000  0.4644200000000000
  0.3333300000000000  0.6666700000000000  0.5355799999999999
  0.3333300000000000  0.6666700000000000  0.7977600000000000
  0.0000000000000000  0.0000000000000000  0.5000000000000000
  0.6666700000000000  0.3333300000000000  0.8333300000000000
  0.3333300000000000  0.6666700000000000  0.1666700000000000
  0.0000100000000001  0.9999900000000002  0.7342000000000000
  0.9999899999999998  0.0000100000000000  0.2658000000000000
  0.6666700000000000  0.3333300000000000  0.0675400000000000
  0.6666600000000000  0.3333400000000000  0.5991300000000001
  0.3333400000000000  0.6666600000000000  0.4008700000000000
  0.3333300000000000  0.6666700000000000  0.9324600000000000
