Cu Se Pb 
 1.0000000000000000
     3.2690000000000001    0.0000000000000000    0.0000000000000000
    -1.6344999999999994    2.8310370449713305    0.0000000000000000
     0.0000000000000000    0.0000000000000000    8.5470000000000006
 Cu  Se  Pb 
   2   2   1
Direct
  0.7305699999999998  0.3652800000000000  0.7482900000000000
  0.2694299999999999  0.6347200000000001  0.2517100000000000
  0.6197199999999998  0.3098600000000001  0.4489200000000000
  0.3802800000000000  0.6901400000000001  0.5510800000000000
  0.0000000000000000  0.0000000000000000  0.0000000000000000
