Sc Pd  C Se
 1.0000000000000000
     3.3029999999999999    0.0000000000000000    0.0000000000000000
    -1.6514999999999993    2.8604819087000011    0.0000000000000000
     0.0000000000000000    0.0000000000000000   25.8299999999999983
 Sc  Pd  C   Se
   3   6   3   6
Direct
  0.0000000000000000  0.0000000000000000  0.0000000000000000
  0.8368600000000000  0.1631400000000000  0.3233600000000000
  0.1631400000000000  0.8368600000000000  0.6766400000000000
  0.9033499999999999  0.0966500000000000  0.8497800000000000
  0.0966500000000001  0.9033500000000001  0.1502200000000000
  0.8085700000000000  0.1914300000000000  0.2296300000000000
  0.6712500000000000  0.3287500000000000  0.4594600000000000
  0.3287500000000000  0.6712500000000000  0.5405400000000000
  0.1914300000000000  0.8085700000000000  0.7703700000000000
  0.0000000000000000  0.0000000000000000  0.5000000000000000
  0.5718299999999999  0.4281700000000000  0.8320100000000001
  0.4281700000000000  0.5718299999999999  0.1679900000000000
  0.8318299999999998  0.1681700000000000  0.7073000000000002
  0.1681700000000000  0.8318300000000000  0.2927000000000000
  0.6703600000000000  0.3296400000000000  0.0523000000000000
  0.6512600000000000  0.3487400000000000  0.6015300000000000
  0.3487400000000000  0.6512600000000000  0.3984700000000000
  0.3296400000000000  0.6703600000000000  0.9477000000000000
