Au Te  C 
 1.0000000000000000
     3.2709999999999999    0.0000000000000000    0.0000000000000000
    -1.6354999999999991    2.8327690957788989    0.0000000000000000
     0.0000000000000000    0.0000000000000000   25.4780000000000015
 Au  Te  C  
   6   6   3
Direct
  0.9999999999999997  0.9999999999999998  0.6198600000000000
  0.0000000000000000  0.0000000000000000  0.3801400000000000
  0.6666700000000000  0.3333300000000000  0.9531900000000000
  0.6666700000000000  0.3333300000000000  0.7134799999999999
  0.3333300000000000  0.6666700000000000  0.2865200000000000
  0.3333300000000000  0.6666700000000000  0.0468100000000000
  0.9999999999999997  0.9999999999999998  0.7900800000000000
  0.0000000000000000  0.0000000000000000  0.2099200000000000
  0.6666700000000000  0.3333300000000000  0.1234200000000000
  0.6666700000000000  0.3333300000000000  0.5432500000000000
  0.3333300000000000  0.6666700000000000  0.4567500000000000
  0.3333300000000000  0.6666700000000000  0.8765799999999999
  0.0000000000000000  0.0000000000000000  0.0000000000000000
  0.6666700000000000  0.3333300000000000  0.3333300000000000
  0.3333300000000000  0.6666700000000000  0.6666699999999999
