Mn  W  C Te
 1.0000000000000000
     3.3029999999999999    0.0000000000000000    0.0000000000000000
    -1.6514999999999993    2.8604819087000011    0.0000000000000000
     0.0000000000000000    0.0000000000000000   25.8299999999999983
 Mn  W   C   Te
   3   6   3   6
Direct
  0.0000000000000000  0.0000000000000000  0.0000000000000000
  0.6666700000000000  0.3333300000000000  0.3333300000000001
  0.3333300000000000  0.6666700000000000  0.6666700000000001
  0.9999899999999998  0.0000100000000000  0.8626500000000000
  0.0000100000000001  0.9999900000000002  0.1373500000000000
  0.6666700000000000  0.3333300000000000  0.1959400000000000
  0.6666700000000000  0.3333300000000000  0.4707100000000000
  0.3333300000000000  0.6666700000000000  0.5292900000000000
  0.3333300000000000  0.6666700000000000  0.8040600000000000
  0.0000000000000000  0.0000000000000000  0.5000000000000000
  0.6666700000000000  0.3333300000000000  0.8333100000000000
  0.3333300000000000  0.6666700000000000  0.1666900000000000
  0.0000000000000000  0.0000000000000000  0.7238800000000000
  0.0000000000000000  0.0000000000000000  0.2761200000000000
  0.6666700000000000  0.3333300000000000  0.0572300000000000
  0.6666600000000000  0.3333400000000000  0.6094300000000000
  0.3333400000000000  0.6666600000000000  0.3905700000000000
  0.3333300000000000  0.6666700000000000  0.9427700000000002
