Rh Te  P 
 1.0000000000000000
     3.2709999999999999    0.0000000000000000    0.0000000000000000
    -1.6354999999999993    2.8327690957788989    0.0000000000000000
     0.0000000000000000    0.0000000000000000   25.4780000000000015
 Rh  Te  P  
   6   6   3
Direct
  0.0000000000000000  0.0000000000000000  0.6216400000000000
  0.9999999999999997  0.9999999999999998  0.3783599999999999
  0.6666700000000000  0.3333300000000000  0.9549700000000000
  0.6666700000000000  0.3333300000000000  0.7116900000000000
  0.3333300000000000  0.6666700000000000  0.2883100000000000
  0.3333300000000000  0.6666700000000000  0.0450300000000000
  0.9999999999999997  0.9999999999999998  0.7754700000000000
  0.0000000000000000  0.0000000000000000  0.2245300000000000
  0.6666700000000000  0.3333300000000000  0.1088100000000000
  0.6666700000000000  0.3333300000000000  0.5578600000000000
  0.3333300000000000  0.6666700000000000  0.4421399999999999
  0.3333300000000000  0.6666700000000000  0.8911900000000000
  0.0000000000000000  0.0000000000000000  0.0000000000000000
  0.6666700000000000  0.3333300000000000  0.3333300000000000
  0.3333300000000000  0.6666700000000000  0.6666699999999999
