Cr Re  C Te
 1.0000000000000000
     3.3029999999999999    0.0000000000000000    0.0000000000000000
    -1.6514999999999993    2.8604819087000011    0.0000000000000000
     0.0000000000000000    0.0000000000000000   25.8299999999999983
 Cr  Re  C   Te
   3   6   3   6
Direct
  0.0000000000000000  0.0000000000000000  0.0000000000000000
  0.6048500000000000  0.3951500000000000  0.3279800000000000
  0.3951499999999999  0.6048500000000000  0.6720200000000000
  0.9954499999999999  0.0045500000000000  0.8899100000000000
  0.0045500000000001  0.9954500000000001  0.1100900000000000
  0.6801300000000000  0.3198700000000000  0.1787600000000000
  0.7224900000000000  0.2775100000000000  0.4640400000000000
  0.2775100000000000  0.7224900000000000  0.5359600000000000
  0.3198700000000000  0.6801300000000000  0.8212400000000000
  0.0000000000000000  0.0000000000000000  0.5000000000000000
  0.6534100000000000  0.3465900000000000  0.8323500000000000
  0.3465900000000000  0.6534100000000000  0.1676500000000000
  0.0491900000000000  0.9508100000000000  0.7109100000000002
  0.9508100000000000  0.0491900000000000  0.2890900000000000
  0.6684700000000000  0.3315300000000000  0.0534300000000000
  0.6384200000000000  0.3615800000000000  0.5974699999999999
  0.3615800000000000  0.6384200000000000  0.4025300000000001
  0.3315300000000000  0.6684700000000000  0.9465700000000001
