Cd Se  P 
 1.0000000000000000
     3.2709999999999999    0.0000000000000000    0.0000000000000000
    -1.6354999999999993    2.8327690957788989    0.0000000000000000
     0.0000000000000000    0.0000000000000000   25.4780000000000015
 Cd  Se  P  
   6   6   3
Direct
  0.9952200000000000  0.0047800000000000  0.6005300000000000
  0.0047799999999999  0.9952199999999998  0.3994700000000000
  0.6732800000000000  0.3267200000000000  0.9341399999999999
  0.6734500000000000  0.3265500000000000  0.7467099999999998
  0.3265500000000000  0.6734500000000000  0.2532900000000000
  0.3267200000000000  0.6732800000000000  0.0658600000000000
  0.0341800000000000  0.9658200000000000  0.8227700000000000
  0.9658199999999999  0.0341800000000000  0.1772300000000000
  0.6738699999999999  0.3261299999999999  0.1381700000000000
  0.6895200000000000  0.3104800000000000  0.5187100000000000
  0.3104800000000000  0.6895200000000000  0.4812899999999999
  0.3261300000000000  0.6738700000000000  0.8618300000000000
  0.0000000000000000  0.0000000000000000  0.0000000000000000
  0.6848200000000000  0.3151800000000000  0.3252900000000000
  0.3151800000000000  0.6848200000000000  0.6747100000000000
