Mn Zr  C Te
 1.0000000000000000
     3.3029999999999999    0.0000000000000000    0.0000000000000000
    -1.6514999999999993    2.8604819087000011    0.0000000000000000
     0.0000000000000000    0.0000000000000000   25.8299999999999983
 Mn  Zr  C   Te
   3   6   3   6
Direct
  0.0000000000000000  0.0000000000000000  0.0000000000000000
  0.7158799999999997  0.2841200000000000  0.3349000000000000
  0.2841200000000000  0.7158800000000000  0.6651000000000000
  0.0874700000000000  0.9125300000000001  0.8581400000000001
  0.9125300000000000  0.0874700000000000  0.1418600000000000
  0.5746700000000001  0.4253300000000000  0.1950100000000000
  0.6675700000000000  0.3324300000000000  0.4735200000000000
  0.3324299999999999  0.6675700000000000  0.5264799999999999
  0.4253299999999999  0.5746700000000000  0.8049900000000000
  0.0000000000000000  0.0000000000000000  0.5000000000000000
  0.7499199999999999  0.2500800000000000  0.8305400000000001
  0.2500800000000000  0.7499200000000000  0.1694600000000000
  0.9653800000000000  0.0346200000000000  0.7249400000000000
  0.0346200000000000  0.9653800000000000  0.2750600000000000
  0.6624600000000000  0.3375400000000000  0.0539700000000000
  0.9660000000000000  0.0340000000000000  0.6097700000000000
  0.0340000000000000  0.9660000000000001  0.3902300000000000
  0.3375400000000000  0.6624600000000000  0.9460300000000000
