 V Ti  N  S 
 1.0000000000000000
     3.3029999999999999    0.0000000000000000    0.0000000000000000
    -1.6514999999999991    2.8604819087000011    0.0000000000000000
     0.0000000000000000    0.0000000000000000   25.8299999999999983
 V   Ti  N   S  
   3   6   3   6
Direct
  0.0000000000000000  0.0000000000000000  0.0000000000000000
  0.7742899999999999  0.2257100000000000  0.3162100000000000
  0.2257099999999999  0.7742900000000000  0.6837900000000000
  0.0235400000000000  0.9764600000000000  0.8637600000000000
  0.9764600000000000  0.0235400000000000  0.1362400000000000
  0.6433000000000000  0.3567000000000000  0.1855200000000000
  0.6667400000000000  0.3332600000000000  0.4753200000000000
  0.3332599999999999  0.6667400000000000  0.5246800000000000
  0.3567000000000000  0.6433000000000000  0.8144800000000000
  0.0000000000000000  0.0000000000000000  0.5000000000000000
  0.6901099999999999  0.3098900000000000  0.8383400000000001
  0.3098899999999999  0.6901100000000000  0.1616600000000000
  0.9129299999999999  0.0870700000000000  0.7056900000000000
  0.0870700000000000  0.9129300000000000  0.2943100000000000
  0.6659200000000000  0.3340800000000000  0.0446400000000000
  0.7364700000000000  0.2635300000000000  0.6259800000000000
  0.2635300000000000  0.7364700000000000  0.3740200000000000
  0.3340800000000000  0.6659200000000000  0.9553600000000000
