Ti  Y  N Se 
 1.0000000000000000
     3.3029999999999999    0.0000000000000000    0.0000000000000000
    -1.6514999999999993    2.8604819087000011    0.0000000000000000
     0.0000000000000000    0.0000000000000000   25.8299999999999983
 Ti  Y   N   Se 
   3   6   3   6
Direct
  0.0000000000000000  0.0000000000000000  0.0000000000000000
  0.6993200000000001  0.3006800000000000  0.3142400000000000
  0.3006799999999999  0.6993200000000002  0.6857600000000000
  0.9964199999999998  0.0035800000000000  0.8997800000000000
  0.0035800000000001  0.9964200000000001  0.1002200000000000
  0.6867000000000000  0.3133000000000000  0.1924500000000000
  0.6683800000000000  0.3316200000000000  0.4702000000000000
  0.3316200000000000  0.6683800000000000  0.5298000000000000
  0.3133000000000000  0.6867000000000000  0.8075500000000000
  0.0000000000000000  0.0000000000000000  0.5000000000000000
  0.6468600000000000  0.3531400000000001  0.8231800000000001
  0.3531400000000000  0.6468600000000000  0.1768200000000000
  0.9758299999999999  0.0241700000000000  0.7128500000000000
  0.0241700000000000  0.9758300000000000  0.2871500000000000
  0.6701900000000000  0.3298100000000000  0.0570600000000000
  0.7874999999999999  0.2125000000000000  0.6164200000000000
  0.2125000000000000  0.7875000000000000  0.3835800000000000
  0.3298100000000000  0.6701900000000000  0.9429400000000000
