Cr  V  N  S 
 1.0000000000000000
     3.3029999999999999    0.0000000000000000    0.0000000000000000
    -1.6514999999999991    2.8604819087000011    0.0000000000000000
     0.0000000000000000    0.0000000000000000   25.8299999999999983
 Cr  V   N   S  
   3   6   3   6
Direct
  0.0000000000000000  0.0000000000000000  0.0000000000000000
  0.4831600000000000  0.5168400000000000  0.3043200000000000
  0.5168400000000000  0.4831600000000000  0.6956800000000000
  0.9856100000000000  0.0143900000000000  0.9160500000000001
  0.0143900000000001  0.9856100000000001  0.0839500000000000
  0.0227700000000000  0.9772299999999999  0.1989600000000000
  0.6667200000000000  0.3332800000000000  0.4765000000000000
  0.3332800000000000  0.6667200000000000  0.5235000000000000
  0.9772299999999998  0.0227700000000000  0.8010400000000002
  0.0000000000000000  0.0000000000000000  0.5000000000000000
  0.6850500000000000  0.3149500000000000  0.9538900000000000
  0.3149500000000000  0.6850500000000000  0.0461100000000000
  0.6460000000000000  0.3540000000000000  0.7783700000000000
  0.3540000000000000  0.6460000000000000  0.2216300000000000
  0.6532700000000000  0.3467300000000000  0.0461500000000000
  0.8456599999999999  0.1543400000000000  0.6693500000000000
  0.1543400000000000  0.8456600000000001  0.3306500000000000
  0.3467300000000000  0.6532700000000000  0.9538500000000000
