Cu Ti  C  S
 1.0000000000000000
     3.3029999999999999    0.0000000000000000    0.0000000000000000
    -1.6514999999999991    2.8604819087000011    0.0000000000000000
     0.0000000000000000    0.0000000000000000   25.8299999999999983
 Cu  Ti  C   S
   3   6   3   6
Direct
  0.0000000000000000  0.0000000000000000  0.0000000000000000
  0.6666700000000000  0.3333300000000000  0.3333300000000001
  0.3333300000000000  0.6666700000000000  0.6666700000000001
  0.0000000000000000  0.0000000000000000  0.8774400000000000
  0.0000000000000000  0.0000000000000000  0.1225600000000000
  0.6666700000000000  0.3333300000000000  0.2107700000000000
  0.6666700000000000  0.3333300000000000  0.4559000000000001
  0.3333300000000000  0.6666700000000000  0.5441000000000000
  0.3333300000000000  0.6666700000000000  0.7892300000000000
  0.0000000000000000  0.0000000000000000  0.5000000000000000
  0.6666700000000000  0.3333300000000000  0.8333400000000000
  0.3333300000000000  0.6666700000000000  0.1666600000000000
  0.0000000000000000  0.0000000000000000  0.7273900000000000
  0.0000000000000000  0.0000000000000000  0.2726100000000000
  0.6666700000000000  0.3333300000000000  0.0607300000000000
  0.6666700000000000  0.3333300000000000  0.6059400000000000
  0.3333300000000000  0.6666700000000000  0.3940600000000000
  0.3333300000000000  0.6666700000000000  0.9392700000000000
