Co Hg  C Se
 1.0000000000000000
     3.3029999999999999    0.0000000000000000    0.0000000000000000
    -1.6514999999999993    2.8604819087000011    0.0000000000000000
     0.0000000000000000    0.0000000000000000   25.8299999999999983
 Co  Hg  C   Se
   3   6   3   6
Direct
  0.0000000000000000  0.0000000000000000  0.0000000000000000
  0.6666700000000000  0.3333300000000000  0.3333300000000001
  0.3333300000000000  0.6666700000000000  0.6666700000000001
  0.0000000000000000  0.0000000000000000  0.8839300000000000
  0.0000000000000000  0.0000000000000000  0.1160700000000000
  0.6666700000000000  0.3333300000000000  0.2172600000000001
  0.6666700000000000  0.3333300000000000  0.4494000000000000
  0.3333300000000000  0.6666700000000000  0.5506000000000000
  0.3333300000000000  0.6666700000000000  0.7827400000000001
  0.0000000000000000  0.0000000000000000  0.5000000000000000
  0.6666700000000000  0.3333300000000000  0.8333300000000000
  0.3333300000000000  0.6666700000000000  0.1666700000000000
  0.0000000000000000  0.0000000000000000  0.7138400000000001
  0.0000000000000000  0.0000000000000000  0.2861600000000000
  0.6666700000000000  0.3333300000000000  0.0471700000000000
  0.6666600000000000  0.3333400000000000  0.6195000000000002
  0.3333400000000000  0.6666600000000000  0.3805000000000000
  0.3333300000000000  0.6666700000000000  0.9528300000000000
