Nb Te Si 
 1.0000000000000000
     3.2709999999999999    0.0000000000000000    0.0000000000000000
    -1.6354999999999993    2.8327690957788989    0.0000000000000000
     0.0000000000000000    0.0000000000000000   25.4780000000000015
 Nb  Te  Si 
   6   6   3
Direct
  0.0000599999999999  0.9999399999999998  0.6351500000000000
  0.9999400000000001  0.0000600000000000  0.3648500000000000
  0.6666600000000000  0.3333400000000000  0.9685300000000000
  0.6667299999999999  0.3332700000000000  0.6980900000000000
  0.3332700000000000  0.6667299999999999  0.3019100000000000
  0.3333400000000000  0.6666600000000000  0.0314700000000000
  0.9998800000000000  0.0001200000000000  0.7731300000000000
  0.0001199999999999  0.9998799999999999  0.2268699999999999
  0.6667400000000000  0.3332600000000000  0.1064600000000000
  0.6665200000000000  0.3334799999999999  0.5602500000000000
  0.3334800000000000  0.6665200000000000  0.4397499999999999
  0.3332600000000000  0.6667400000000000  0.8935399999999999
  0.0000000000000000  0.0000000000000000  0.0000000000000000
  0.6665800000000000  0.3334199999999999  0.3333800000000000
  0.3334200000000000  0.6665800000000000  0.6666200000000000
