Zn  V  C Te
 1.0000000000000000
     3.3029999999999999    0.0000000000000000    0.0000000000000000
    -1.6514999999999993    2.8604819087000011    0.0000000000000000
     0.0000000000000000    0.0000000000000000   25.8299999999999983
 Zn  V   C   Te
   3   6   3   6
Direct
  0.0000000000000000  0.0000000000000000  0.0000000000000000
  0.6666700000000000  0.3333300000000000  0.3333400000000001
  0.3333300000000000  0.6666700000000000  0.6666600000000001
  0.0000000000000000  0.0000000000000000  0.8570400000000002
  0.0000000000000000  0.0000000000000000  0.1429600000000000
  0.6666700000000000  0.3333300000000000  0.1903700000000000
  0.6666700000000000  0.3333300000000000  0.4762900000000000
  0.3333300000000000  0.6666700000000000  0.5237100000000000
  0.3333300000000000  0.6666700000000000  0.8096300000000000
  0.0000000000000000  0.0000000000000000  0.5000000000000000
  0.6666700000000000  0.3333300000000000  0.8333300000000000
  0.3333300000000000  0.6666700000000000  0.1666700000000000
  0.0000000000000000  0.0000000000000000  0.7502700000000000
  0.0000000000000000  0.0000000000000000  0.2497300000000000
  0.6666700000000000  0.3333300000000000  0.0836000000000000
  0.6666600000000000  0.3333400000000000  0.5830700000000000
  0.3333400000000000  0.6666600000000000  0.4169300000000000
  0.3333300000000000  0.6666700000000000  0.9164000000000000
