Sc Os  C  S
 1.0000000000000000
     3.3029999999999999    0.0000000000000000    0.0000000000000000
    -1.6514999999999991    2.8604819087000011    0.0000000000000000
     0.0000000000000000    0.0000000000000000   25.8299999999999983
 Sc  Os  C   S
   3   6   3   6
Direct
  0.0000000000000000  0.0000000000000000  0.0000000000000000
  0.6666700000000000  0.3333300000000000  0.3333300000000001
  0.3333300000000000  0.6666700000000000  0.6666700000000001
  0.0000000000000000  0.0000000000000000  0.8686700000000001
  0.0000000000000000  0.0000000000000000  0.1313300000000000
  0.6666700000000000  0.3333300000000000  0.2020000000000000
  0.6666700000000000  0.3333300000000000  0.4646700000000000
  0.3333300000000000  0.6666700000000000  0.5353300000000000
  0.3333300000000000  0.6666700000000000  0.7980000000000000
  0.0000000000000000  0.0000000000000000  0.5000000000000000
  0.6666700000000000  0.3333300000000000  0.8333300000000000
  0.3333300000000000  0.6666700000000000  0.1666700000000000
  0.0000000000000000  0.0000000000000000  0.7296200000000002
  0.0000000000000000  0.0000000000000000  0.2703800000000000
  0.6666700000000000  0.3333300000000000  0.0629500000000000
  0.6666700000000000  0.3333300000000000  0.6037100000000000
  0.3333300000000000  0.6666700000000000  0.3962900000000000
  0.3333300000000000  0.6666700000000000  0.9370500000000000
