Ca Ir  N  S 
 1.0000000000000000
     3.3029999999999999    0.0000000000000000    0.0000000000000000
    -1.6514999999999991    2.8604819087000011    0.0000000000000000
     0.0000000000000000    0.0000000000000000   25.8299999999999983
 Ca  Ir  N   S  
   3   6   3   6
Direct
  0.0000000000000000  0.0000000000000000  0.0000000000000000
  0.6666600000000000  0.3333400000000000  0.3333700000000000
  0.3333400000000000  0.6666600000000000  0.6666299999999999
  0.0000000000000000  0.0000000000000000  0.8739800000000000
  0.0000000000000000  0.0000000000000000  0.1260200000000000
  0.6666700000000000  0.3333300000000000  0.2070600000000000
  0.6666700000000000  0.3333300000000000  0.4594800000000000
  0.3333300000000000  0.6666700000000000  0.5405200000000000
  0.3333300000000000  0.6666700000000000  0.7929400000000000
  0.0000000000000000  0.0000000000000000  0.5000000000000000
  0.6666600000000000  0.3333400000000000  0.8335399999999999
  0.3333400000000000  0.6666600000000000  0.1664600000000000
  0.0000000000000000  0.0000000000000000  0.7538600000000002
  0.0000000000000000  0.0000000000000000  0.2461400000000000
  0.6666600000000000  0.3333400000000000  0.0869600000000000
  0.6666700000000000  0.3333300000000000  0.5795900000000000
  0.3333300000000000  0.6666700000000000  0.4204100000000000
  0.3333400000000000  0.6666600000000000  0.9130400000000000
