Pt  S Si 
 1.0000000000000000
     3.2690000000000001    0.0000000000000000    0.0000000000000000
    -1.6344999999999994    2.8310370449713305    0.0000000000000000
     0.0000000000000000    0.0000000000000000    8.5470000000000006
 Pt  S   Si 
   2   2   1
Direct
  0.6685299999999997  0.3342700000000000  0.8519400000000000
  0.3314700000000000  0.6657300000000002  0.1480600000000000
  0.6184099999999998  0.3092000000000000  0.4523700000000000
  0.3815899999999999  0.6908000000000001  0.5476300000000000
  0.0000000000000000  0.0000000000000000  0.0000000000000000
