Zr Te  N 
 1.0000000000000000
     3.2709999999999999    0.0000000000000000    0.0000000000000000
    -1.6354999999999991    2.8327690957788989    0.0000000000000000
     0.0000000000000000    0.0000000000000000   25.4780000000000015
 Zr  Te  N  
   6   6   3
Direct
  0.9999999999999997  0.9999999999999998  0.6226400000000000
  0.0000000000000000  0.0000000000000000  0.3773600000000000
  0.6666700000000000  0.3333300000000000  0.9559800000000001
  0.6666700000000000  0.3333300000000000  0.7106900000000000
  0.3333300000000000  0.6666700000000000  0.2893100000000000
  0.3333300000000000  0.6666700000000000  0.0440200000000000
  0.9999999999999997  0.9999999999999998  0.7882200000000000
  0.0000000000000000  0.0000000000000000  0.2117800000000000
  0.6666700000000000  0.3333300000000000  0.1215600000000000
  0.6666700000000000  0.3333300000000000  0.5451100000000000
  0.3333300000000000  0.6666700000000000  0.4548899999999999
  0.3333300000000000  0.6666700000000000  0.8784400000000000
  0.0000000000000000  0.0000000000000000  0.0000000000000000
  0.6666700000000000  0.3333300000000000  0.3333300000000000
  0.3333300000000000  0.6666700000000000  0.6666699999999999
