Ti Te  B 
 1.0000000000000000
     3.2709999999999999    0.0000000000000000    0.0000000000000000
    -1.6354999999999993    2.8327690957788989    0.0000000000000000
     0.0000000000000000    0.0000000000000000   25.4780000000000015
 Ti  Te  B  
   6   6   3
Direct
  0.0926800000000000  0.9073200000000000  0.6390500000000000
  0.9073200000000000  0.0926800000000000  0.3609499999999999
  0.6644600000000001  0.3355400000000000  0.9755100000000000
  0.7544500000000000  0.2455500000000000  0.6884400000000001
  0.2455499999999999  0.7544499999999997  0.3115600000000000
  0.3355399999999999  0.6644600000000001  0.0244900000000000
  0.9807300000000000  0.0192700000000000  0.7718600000000000
  0.0192700000000000  0.9807299999999999  0.2281400000000000
  0.5560800000000000  0.4439199999999999  0.1105000000000000
  0.6270200000000000  0.3729800000000000  0.5616900000000000
  0.3729800000000000  0.6270200000000000  0.4383100000000000
  0.4439199999999999  0.5560800000000000  0.8894999999999998
  0.0000000000000000  0.0000000000000000  0.0000000000000000
  0.5845200000000000  0.4154800000000000  0.3370200000000000
  0.4154800000000000  0.5845200000000000  0.6629800000000000
