Fe Rh Se  N 
 1.0000000000000000
     3.3121000000000000    0.0000000000000000    0.0000000000000000
    -1.6560499999999994    2.8683627398744393    0.0000000000000000
     0.0000000000000000    0.0000000000000000    9.0113000000000003
 Fe  Rh  Se  N  
   2   2   2   1
Direct
  0.6666700000000001  0.3333300000000000  0.5748000000000000
  0.3333300000000001  0.6666700000000000  0.4252000000000000
  0.6666200000000000  0.3333100000000000  0.8878900000000000
  0.3333800000000000  0.6666900000000000  0.1121100000000000
  0.6666800000000001  0.3333400000000000  0.2953200000000000
  0.3333200000000001  0.6666600000000000  0.7046800000000000
  0.0000000000000000  0.0000000000000000  0.0000000000000000
