Li Cd  C  S
 1.0000000000000000
     3.3029999999999999    0.0000000000000000    0.0000000000000000
    -1.6514999999999991    2.8604819087000011    0.0000000000000000
     0.0000000000000000    0.0000000000000000   25.8299999999999983
 Li  Cd  C   S
   3   6   3   6
Direct
  0.0000000000000000  0.0000000000000000  0.0000000000000000
  0.6666700000000000  0.3333300000000000  0.3333300000000001
  0.3333300000000000  0.6666700000000000  0.6666700000000001
  0.0000000000000000  0.0000000000000000  0.8845100000000000
  0.0000000000000000  0.0000000000000000  0.1154900000000000
  0.6666700000000000  0.3333300000000000  0.2178400000000000
  0.6666700000000000  0.3333300000000000  0.4488200000000000
  0.3333300000000000  0.6666700000000000  0.5511800000000000
  0.3333300000000000  0.6666700000000000  0.7821600000000000
  0.0000000000000000  0.0000000000000000  0.5000000000000000
  0.6666700000000000  0.3333300000000000  0.8333300000000000
  0.3333300000000000  0.6666700000000000  0.1666700000000000
  0.0000000000000000  0.0000000000000000  0.7181700000000000
  0.0000000000000000  0.0000000000000000  0.2818300000000000
  0.6666700000000000  0.3333300000000000  0.0515100000000000
  0.6666700000000000  0.3333300000000000  0.6151600000000000
  0.3333300000000000  0.6666700000000000  0.3848400000000001
  0.3333300000000000  0.6666700000000000  0.9484900000000001
