Cr Mo  N  S 
 1.0000000000000000
     3.3029999999999999    0.0000000000000000    0.0000000000000000
    -1.6514999999999991    2.8604819087000011    0.0000000000000000
     0.0000000000000000    0.0000000000000000   25.8299999999999983
 Cr  Mo  N   S  
   3   6   3   6
Direct
  0.0000000000000000  0.0000000000000000  0.0000000000000000
  0.6668400000000000  0.3331600000000000  0.3859400000000000
  0.3331600000000000  0.6668400000000000  0.6140600000000001
  0.0036000000000000  0.9964000000000000  0.8369200000000000
  0.9963999999999997  0.0036000000000000  0.1630800000000000
  0.6629100000000000  0.3370900000000000  0.2270400000000000
  0.6667400000000000  0.3332600000000000  0.4683400000000001
  0.3332599999999999  0.6667400000000000  0.5316600000000000
  0.3370900000000000  0.6629100000000000  0.7729600000000000
  0.0000000000000000  0.0000000000000000  0.5000000000000000
  0.6702399999999999  0.3297600000000000  0.8261300000000000
  0.3297600000000000  0.6702399999999999  0.1738700000000000
  0.0038600000000000  0.9961400000000000  0.7305700000000001
  0.9961400000000000  0.0038600000000000  0.2694300000000000
  0.6088100000000000  0.3911900000000000  0.0378700000000000
  0.6665100000000000  0.3334900000000000  0.5845700000000000
  0.3334900000000000  0.6665100000000000  0.4154300000000000
  0.3911900000000000  0.6088100000000000  0.9621300000000003
