Re Te Sb 
 1.0000000000000000
     3.2690000000000001    0.0000000000000000    0.0000000000000000
    -1.6344999999999994    2.8310370449713305    0.0000000000000000
     0.0000000000000000    0.0000000000000000    8.5470000000000006
 Re  Te  Sb 
   2   2   1
Direct
  0.6218600000000000  0.3109300000000000  0.8360900000000000
  0.3781399999999999  0.6890700000000000  0.1639100000000000
  0.6189900000000000  0.3095000000000000  0.3353500000000000
  0.3810100000000001  0.6905000000000001  0.6646500000000000
  0.0000000000000000  0.0000000000000000  0.0000000000000000
