Au  S  B 
 1.0000000000000000
     3.2709999999999999    0.0000000000000000    0.0000000000000000
    -1.6354999999999993    2.8327690957788989    0.0000000000000000
     0.0000000000000000    0.0000000000000000   25.4780000000000015
 Au  S   B  
   6   6   3
Direct
  0.4101600000000000  0.5898400000000000  0.6285600000000000
  0.5898400000000000  0.4101599999999999  0.3714400000000000
  0.6647900000000000  0.3352100000000000  0.9504500000000000
  0.1621599999999999  0.8378399999999998  0.7284800000000000
  0.8378400000000000  0.1621600000000000  0.2715200000000000
  0.3352100000000000  0.6647899999999999  0.0495500000000000
  0.0665100000000000  0.9334900000000000  0.8397699999999998
  0.9334899999999999  0.0665100000000000  0.1602300000000000
  0.6361200000000000  0.3638800000000000  0.1582900000000000
  0.6856599999999999  0.3143400000000000  0.4999500000000000
  0.3143400000000000  0.6856600000000000  0.5000500000000000
  0.3638799999999999  0.6361199999999999  0.8417100000000000
  0.9999999999999997  0.9999999999999998  0.0000000000000000
  0.2827400000000000  0.7172599999999999  0.3280800000000000
  0.7172600000000000  0.2827399999999999  0.6719200000000000
