Ti Se Sb 
 1.0000000000000000
     3.2690000000000001    0.0000000000000000    0.0000000000000000
    -1.6344999999999994    2.8310370449713305    0.0000000000000000
     0.0000000000000000    0.0000000000000000    8.5470000000000006
 Ti  Se  Sb 
   2   2   1
Direct
  0.6664999999999998  0.3332500000000000  0.7429400000000000
  0.3335000000000000  0.6667500000000000  0.2570600000000000
  0.6667700000000000  0.3333800000000000  0.3387900000000000
  0.3332299999999999  0.6666200000000000  0.6612099999999999
  0.0000000000000000  0.0000000000000000  0.0000000000000000
