Ti Os  C Se
 1.0000000000000000
     3.3029999999999999    0.0000000000000000    0.0000000000000000
    -1.6514999999999993    2.8604819087000011    0.0000000000000000
     0.0000000000000000    0.0000000000000000   25.8299999999999983
 Ti  Os  C   Se
   3   6   3   6
Direct
  0.0000000000000000  0.0000000000000000  0.0000000000000000
  0.2838300000000001  0.7161700000000001  0.2847600000000000
  0.7161700000000000  0.2838300000000000  0.7152400000000000
  0.0022600000000000  0.9977400000000001  0.9058600000000000
  0.9977399999999998  0.0022600000000000  0.0941400000000000
  0.2797499999999999  0.7202499999999999  0.1929500000000000
  0.7420799999999999  0.2579200000000000  0.4587300000000000
  0.2579199999999999  0.7420800000000000  0.5412700000000000
  0.7202499999999998  0.2797500000000000  0.8070500000000000
  0.0000000000000000  0.0000000000000000  0.5000000000000000
  0.0522000000000000  0.9478000000000000  0.8250200000000000
  0.9478000000000000  0.0522000000000000  0.1749800000000000
  0.3836200000000000  0.6163800000000000  0.7432100000000000
  0.6163800000000000  0.3836200000000000  0.2567900000000000
  0.6658999999999998  0.3341000000000000  0.0480600000000000
  0.7131600000000000  0.2868400000000000  0.5987100000000000
  0.2868400000000000  0.7131600000000000  0.4012900000000000
  0.3341000000000000  0.6659000000000000  0.9519400000000000
