Na Mo  N Se 
 1.0000000000000000
     3.3029999999999999    0.0000000000000000    0.0000000000000000
    -1.6514999999999993    2.8604819087000011    0.0000000000000000
     0.0000000000000000    0.0000000000000000   25.8299999999999983
 Na  Mo  N   Se 
   3   6   3   6
Direct
  0.0000000000000000  0.0000000000000000  0.0000000000000000
  0.6666700000000000  0.3333300000000000  0.3347600000000000
  0.3333300000000000  0.6666700000000000  0.6652400000000001
  0.0000000000000000  0.0000000000000000  0.8602500000000001
  0.0000000000000000  0.0000000000000000  0.1397500000000000
  0.6666600000000000  0.3333400000000000  0.1980800000000000
  0.6666700000000000  0.3333300000000000  0.4720300000000001
  0.3333300000000000  0.6666700000000000  0.5279700000000001
  0.3333400000000000  0.6666600000000000  0.8019200000000001
  0.0000000000000000  0.0000000000000000  0.5000000000000000
  0.6666700000000000  0.3333300000000000  0.8432700000000000
  0.3333300000000000  0.6666700000000000  0.1567300000000000
  0.0000000000000000  0.0000000000000000  0.7508600000000000
  0.0000000000000000  0.0000000000000000  0.2491400000000000
  0.6666700000000000  0.3333300000000000  0.0798400000000000
  0.6666700000000000  0.3333300000000000  0.5824700000000000
  0.3333300000000000  0.6666700000000000  0.4175300000000000
  0.3333300000000000  0.6666700000000000  0.9201600000000000
