Li Mn  C  S
 1.0000000000000000
     3.3029999999999999    0.0000000000000000    0.0000000000000000
    -1.6514999999999991    2.8604819087000011    0.0000000000000000
     0.0000000000000000    0.0000000000000000   25.8299999999999983
 Li  Mn  C   S
   3   6   3   6
Direct
  0.0000000000000000  0.0000000000000000  0.0000000000000000
  0.6666700000000000  0.3333300000000000  0.3333300000000001
  0.3333300000000000  0.6666700000000000  0.6666700000000001
  0.0000000000000000  0.0000000000000000  0.8716699999999999
  0.0000000000000000  0.0000000000000000  0.1283300000000000
  0.6666700000000000  0.3333300000000000  0.2050000000000000
  0.6666600000000000  0.3333400000000000  0.4616600000000000
  0.3333400000000000  0.6666600000000000  0.5383400000000000
  0.3333300000000000  0.6666700000000000  0.7950000000000000
  0.0000000000000000  0.0000000000000000  0.5000000000000000
  0.6666700000000000  0.3333300000000000  0.8333300000000000
  0.3333300000000000  0.6666700000000000  0.1666700000000000
  0.0000100000000001  0.9999900000000002  0.7372600000000000
  0.9999899999999998  0.0000100000000000  0.2627400000000000
  0.6666800000000001  0.3333200000000000  0.0706000000000000
  0.6666600000000000  0.3333400000000000  0.5960700000000000
  0.3333400000000000  0.6666600000000000  0.4039300000000000
  0.3333200000000000  0.6666800000000001  0.9294000000000000
