Mn Pt  C Se
 1.0000000000000000
     3.3029999999999999    0.0000000000000000    0.0000000000000000
    -1.6514999999999993    2.8604819087000011    0.0000000000000000
     0.0000000000000000    0.0000000000000000   25.8299999999999983
 Mn  Pt  C   Se
   3   6   3   6
Direct
  0.0000000000000000  0.0000000000000000  0.0000000000000000
  0.6851200000000000  0.3148800000000000  0.3597800000000000
  0.3148800000000000  0.6851200000000000  0.6402200000000000
  0.9920699999999998  0.0079300000000000  0.8930900000000002
  0.0079300000000000  0.9920700000000000  0.1069100000000000
  0.3188800000000000  0.6811199999999999  0.2163300000000000
  0.6754799999999999  0.3245200000000000  0.4550400000000000
  0.3245199999999999  0.6754800000000000  0.5449600000000000
  0.6811199999999999  0.3188800000000000  0.7836700000000000
  0.0000000000000000  0.0000000000000000  0.5000000000000000
  0.6593300000000000  0.3406700000000000  0.8555400000000000
  0.3406700000000000  0.6593300000000000  0.1444600000000000
  0.1999500000000000  0.8000500000000000  0.7219000000000000
  0.8000500000000000  0.1999500000000000  0.2781000000000000
  0.6706000000000000  0.3294000000000000  0.0468200000000000
  0.6517500000000001  0.3482500000000000  0.6093400000000000
  0.3482500000000000  0.6517500000000001  0.3906600000000000
  0.3294000000000000  0.6706000000000000  0.9531800000000000
