Ca Sc  S  N 
 1.0000000000000000
     3.3121000000000000    0.0000000000000000    0.0000000000000000
    -1.6560499999999994    2.8683627398744393    0.0000000000000000
     0.0000000000000000    0.0000000000000000    9.0113000000000003
 Ca  Sc  S   N  
   2   2   2   1
Direct
  0.6666700000000001  0.3333300000000000  0.5742300000000000
  0.3333300000000001  0.6666700000000000  0.4257700000000000
  0.6666700000000001  0.3333300000000000  0.8939899999999998
  0.3333300000000001  0.6666700000000000  0.1060100000000000
  0.6666700000000001  0.3333300000000000  0.2638300000000000
  0.3333300000000001  0.6666700000000000  0.7361700000000001
  0.0000000000000000  0.0000000000000000  0.0000000000000000
