Ni  Y  S  C 
 1.0000000000000000
     3.3121000000000000    0.0000000000000000    0.0000000000000000
    -1.6560499999999991    2.8683627398744393    0.0000000000000000
     0.0000000000000000    0.0000000000000000    9.0113000000000003
 Ni  Y   S   C  
   2   2   2   1
Direct
  0.6666700000000001  0.3333400000000000  0.5738799999999999
  0.3333300000000001  0.6666600000000000  0.4261200000000001
  0.6666700000000001  0.3333400000000000  0.8637200000000000
  0.3333300000000001  0.6666600000000000  0.1362800000000000
  0.6666500000000000  0.3333300000000000  0.3306900000000000
  0.3333500000000000  0.6666700000000000  0.6693100000000000
  0.0000000000000000  0.0000000000000000  0.0000000000000000
