Mg Re  C Se
 1.0000000000000000
     3.3029999999999999    0.0000000000000000    0.0000000000000000
    -1.6514999999999993    2.8604819087000011    0.0000000000000000
     0.0000000000000000    0.0000000000000000   25.8299999999999983
 Mg  Re  C   Se
   3   6   3   6
Direct
  0.0000000000000000  0.0000000000000000  0.0000000000000000
  0.6332000000000000  0.3668000000000001  0.3423200000000000
  0.3668000000000000  0.6332000000000000  0.6576800000000000
  0.9764299999999998  0.0235700000000000  0.8781000000000000
  0.0235700000000000  0.9764300000000000  0.1219000000000000
  0.8406200000000000  0.1593800000000000  0.2040000000000000
  0.6271900000000000  0.3728100000000000  0.4622100000000000
  0.3728100000000000  0.6271900000000000  0.5377900000000000
  0.1593799999999999  0.8406200000000000  0.7960000000000002
  0.0000000000000000  0.0000000000000000  0.5000000000000000
  0.6712200000000000  0.3287800000000000  0.8339600000000000
  0.3287799999999999  0.6712200000000000  0.1660400000000000
  0.8649199999999999  0.1350800000000000  0.7489800000000000
  0.1350800000000000  0.8649200000000000  0.2510200000000000
  0.6905300000000000  0.3094700000000000  0.0809600000000000
  0.6890600000000000  0.3109400000000000  0.5832500000000000
  0.3109399999999999  0.6890600000000000  0.4167500000000001
  0.3094700000000000  0.6905300000000000  0.9190400000000000
