Re Se Pb 
 1.0000000000000000
     3.2709999999999999    0.0000000000000000    0.0000000000000000
    -1.6354999999999993    2.8327690957788989    0.0000000000000000
     0.0000000000000000    0.0000000000000000   25.4780000000000015
 Re  Se  Pb 
   6   6   3
Direct
  0.0000000000000000  0.0000000000000000  0.5877200000000000
  0.9999999999999997  0.9999999999999998  0.4122799999999999
  0.6666700000000000  0.3333300000000000  0.9210600000000000
  0.6666700000000000  0.3333300000000000  0.7456100000000000
  0.3333300000000000  0.6666700000000000  0.2543900000000000
  0.3333300000000000  0.6666700000000000  0.0789400000000000
  0.9999999999999997  0.9999999999999998  0.7843300000000000
  0.0000000000000000  0.0000000000000000  0.2156699999999999
  0.6666700000000000  0.3333300000000000  0.1176600000000000
  0.6666600000000000  0.3333400000000000  0.5490000000000000
  0.3333400000000000  0.6666600000000000  0.4510000000000000
  0.3333300000000000  0.6666700000000000  0.8823400000000000
  0.0000000000000000  0.0000000000000000  0.0000000000000000
  0.6666700000000000  0.3333300000000000  0.3333300000000000
  0.3333300000000000  0.6666700000000000  0.6666699999999999
