Na Zr  C  S
 1.0000000000000000
     3.3029999999999999    0.0000000000000000    0.0000000000000000
    -1.6514999999999991    2.8604819087000011    0.0000000000000000
     0.0000000000000000    0.0000000000000000   25.8299999999999983
 Na  Zr  C   S
   3   6   3   6
Direct
  0.0000000000000000  0.0000000000000000  0.0000000000000000
  0.6666700000000000  0.3333300000000000  0.3333300000000001
  0.3333300000000000  0.6666700000000000  0.6666700000000001
  0.0000000000000000  0.0000000000000000  0.8799700000000000
  0.0000000000000000  0.0000000000000000  0.1200300000000000
  0.6666700000000000  0.3333300000000000  0.2133100000000000
  0.6666700000000000  0.3333300000000000  0.4533600000000000
  0.3333300000000000  0.6666700000000000  0.5466400000000000
  0.3333300000000000  0.6666700000000000  0.7866900000000000
  0.0000000000000000  0.0000000000000000  0.5000000000000000
  0.6666700000000000  0.3333300000000000  0.8333300000000000
  0.3333300000000000  0.6666700000000000  0.1666700000000000
  0.0000000000000000  0.0000000000000000  0.7259400000000000
  0.0000000000000000  0.0000000000000000  0.2740600000000000
  0.6666700000000000  0.3333300000000000  0.0592700000000000
  0.6666700000000000  0.3333300000000000  0.6074000000000001
  0.3333300000000000  0.6666700000000000  0.3926000000000000
  0.3333300000000000  0.6666700000000000  0.9407300000000000
