Pt Se Ge 
 1.0000000000000000
     3.2709999999999999    0.0000000000000000    0.0000000000000000
    -1.6354999999999993    2.8327690957788989    0.0000000000000000
     0.0000000000000000    0.0000000000000000   25.4780000000000015
 Pt  Se  Ge 
   6   6   3
Direct
  0.0092500000000000  0.9907500000000000  0.5968500000000000
  0.9907500000000000  0.0092500000000000  0.4031500000000000
  0.6759300000000000  0.3240700000000000  0.9301900000000000
  0.6574000000000000  0.3426000000000000  0.7364800000000000
  0.3426000000000000  0.6574000000000000  0.2635200000000000
  0.3240699999999999  0.6759299999999999  0.0698100000000000
  0.9855100000000000  0.0144900000000000  0.8046899999999998
  0.0144899999999999  0.9855099999999998  0.1953100000000000
  0.6521699999999999  0.3478299999999999  0.1380200000000000
  0.6811500000000000  0.3188500000000000  0.5286400000000000
  0.3188499999999999  0.6811499999999998  0.4713600000000000
  0.3478299999999999  0.6521699999999999  0.8619800000000000
  0.0000000000000000  0.0000000000000000  0.0000000000000000
  0.6666700000000000  0.3333300000000000  0.3333300000000000
  0.3333300000000000  0.6666700000000000  0.6666699999999999
