Li Re  C Se
 1.0000000000000000
     3.3029999999999999    0.0000000000000000    0.0000000000000000
    -1.6514999999999993    2.8604819087000011    0.0000000000000000
     0.0000000000000000    0.0000000000000000   25.8299999999999983
 Li  Re  C   Se
   3   6   3   6
Direct
  0.0000000000000000  0.0000000000000000  0.0000000000000000
  0.6583599999999999  0.3416400000000000  0.3407300000000000
  0.3416400000000000  0.6583599999999999  0.6592700000000000
  0.9238000000000000  0.0762000000000000  0.8720300000000001
  0.0762000000000001  0.9238000000000001  0.1279700000000000
  0.8053000000000000  0.1947000000000000  0.2045400000000000
  0.7165400000000000  0.2834600000000000  0.4637800000000000
  0.2834600000000000  0.7165400000000000  0.5362200000000000
  0.1947000000000000  0.8053000000000001  0.7954599999999999
  0.0000000000000000  0.0000000000000000  0.5000000000000000
  0.5377600000000000  0.4622400000000000  0.8132700000000002
  0.4622399999999999  0.5377600000000000  0.1867300000000000
  0.9454200000000000  0.0545800000000000  0.7264600000000000
  0.0545800000000000  0.9454200000000000  0.2735400000000000
  0.7436400000000000  0.2563600000000000  0.0817800000000000
  0.6451099999999997  0.3548900000000000  0.5881999999999999
  0.3548900000000000  0.6451100000000000  0.4118000000000001
  0.2563600000000000  0.7436400000000001  0.9182200000000000
