 V Te Ga 
 1.0000000000000000
     3.2709999999999999    0.0000000000000000    0.0000000000000000
    -1.6354999999999993    2.8327690957788989    0.0000000000000000
     0.0000000000000000    0.0000000000000000   25.4780000000000015
 V   Te  Ga 
   6   6   3
Direct
  0.9999999999999997  0.9999999999999998  0.6103900000000000
  0.0000000000000000  0.0000000000000000  0.3896100000000000
  0.6666700000000000  0.3333300000000000  0.9437199999999998
  0.6666700000000000  0.3333300000000000  0.7229400000000000
  0.3333300000000000  0.6666700000000000  0.2770600000000000
  0.3333300000000000  0.6666700000000000  0.0562800000000000
  0.9999999999999997  0.9999999999999998  0.7706300000000000
  0.0000000000000000  0.0000000000000000  0.2293699999999999
  0.6666700000000000  0.3333300000000000  0.1039600000000000
  0.6666700000000000  0.3333300000000000  0.5627000000000000
  0.3333300000000000  0.6666700000000000  0.4373000000000000
  0.3333300000000000  0.6666700000000000  0.8960399999999997
  0.0000000000000000  0.0000000000000000  0.0000000000000000
  0.6666700000000000  0.3333300000000000  0.3333300000000000
  0.3333300000000000  0.6666700000000000  0.6666699999999999
