Hg Se As 
 1.0000000000000000
     3.2709999999999999    0.0000000000000000    0.0000000000000000
    -1.6354999999999993    2.8327690957788989    0.0000000000000000
     0.0000000000000000    0.0000000000000000   25.4780000000000015
 Hg  Se  As 
   6   6   3
Direct
  0.0004500000000000  0.9995500000000000  0.5902900000000000
  0.9995499999999999  0.0004500000000000  0.4097100000000000
  0.6675700000000000  0.3324300000000000  0.9316500000000000
  0.6762600000000000  0.3237400000000000  0.7575400000000000
  0.3237400000000000  0.6762600000000000  0.2424600000000000
  0.3324300000000000  0.6675700000000000  0.0683500000000000
  0.9835999999999998  0.0164000000000000  0.8332299999999999
  0.0163999999999999  0.9836000000000000  0.1667700000000000
  0.6548299999999999  0.3451700000000000  0.1351400000000000
  0.6499200000000001  0.3500799999999999  0.5173600000000000
  0.3500799999999999  0.6499199999999999  0.4826400000000000
  0.3451700000000000  0.6548300000000000  0.8648599999999997
  0.0000000000000000  0.0000000000000000  0.0000000000000000
  0.6122500000000000  0.3877499999999999  0.3278400000000000
  0.3877499999999999  0.6122499999999998  0.6721599999999999
