Cr Zn  C Te
 1.0000000000000000
     3.3029999999999999    0.0000000000000000    0.0000000000000000
    -1.6514999999999993    2.8604819087000011    0.0000000000000000
     0.0000000000000000    0.0000000000000000   25.8299999999999983
 Cr  Zn  C   Te
   3   6   3   6
Direct
  0.0000000000000000  0.0000000000000000  0.0000000000000000
  0.7562800000000000  0.2437200000000000  0.3180300000000000
  0.2437200000000001  0.7562800000000001  0.6819700000000000
  0.8652700000000000  0.1347300000000000  0.8655700000000000
  0.1347299999999999  0.8652700000000000  0.1344300000000000
  0.7248300000000000  0.2751700000000000  0.1981700000000000
  0.5221200000000000  0.4778800000000001  0.4557600000000000
  0.4778800000000000  0.5221200000000000  0.5442399999999999
  0.2751699999999999  0.7248300000000000  0.8018300000000000
  0.0000000000000000  0.0000000000000000  0.5000000000000000
  0.7686300000000000  0.2313700000000000  0.7910000000000000
  0.2313700000000001  0.7686300000000001  0.2090000000000000
  0.9300400000000000  0.0699600000000000  0.7238500000000000
  0.0699600000000000  0.9300400000000000  0.2761500000000000
  0.6634300000000000  0.3365700000000000  0.0493000000000000
  0.7559599999999999  0.2440400000000000  0.6213600000000000
  0.2440400000000000  0.7559600000000000  0.3786400000000000
  0.3365700000000000  0.6634300000000000  0.9507000000000000
