Zn  N  S 
 1.0000000000000000
     3.3029999999999999    0.0000000000000000    0.0000000000000000
    -1.6514999999999991    2.8604819087000011    0.0000000000000000
     0.0000000000000000    0.0000000000000000   25.8299999999999983
 Zn  N   S  
   9   3   6
Direct
  0.0000000000000000  0.0000000000000000  0.0000000000000000
  0.6666700000000000  0.3333300000000000  0.3333400000000001
  0.3333300000000000  0.6666700000000000  0.6666600000000001
  0.0000100000000001  0.9999900000000002  0.8793000000000000
  0.9999899999999998  0.0000100000000000  0.1207000000000000
  0.6666700000000000  0.3333300000000000  0.2126000000000000
  0.6666600000000000  0.3333400000000000  0.4540500000000000
  0.3333400000000000  0.6666600000000000  0.5459500000000000
  0.3333300000000000  0.6666700000000000  0.7874000000000000
  0.0000000000000000  0.0000000000000000  0.5000000000000000
  0.6666499999999999  0.3333500000000000  0.8334600000000000
  0.3333499999999999  0.6666500000000000  0.1665400000000000
  0.0000100000000001  0.9999900000000002  0.7263000000000001
  0.9999899999999998  0.0000100000000000  0.2737000000000000
  0.6666700000000000  0.3333300000000000  0.0596400000000000
  0.6666600000000000  0.3333400000000000  0.6070200000000000
  0.3333400000000000  0.6666600000000000  0.3929800000000000
  0.3333300000000000  0.6666700000000000  0.9403600000000000
