Sc  S Si 
 1.0000000000000000
     3.2709999999999999    0.0000000000000000    0.0000000000000000
    -1.6354999999999993    2.8327690957788989    0.0000000000000000
     0.0000000000000000    0.0000000000000000   25.4780000000000015
 Sc  S   Si 
   6   6   3
Direct
  0.0172399999999999  0.9827599999999999  0.5767200000000000
  0.9827600000000000  0.0172400000000000  0.4232799999999999
  0.7478000000000000  0.2522000000000000  0.9093100000000000
  0.7130299999999999  0.2869700000000000  0.7552800000000000
  0.2869699999999998  0.7130299999999999  0.2447200000000000
  0.2522000000000000  0.7478000000000000  0.0906900000000000
  0.0530799999999999  0.9469199999999999  0.7788200000000000
  0.9469200000000000  0.0530800000000000  0.2211799999999999
  0.5837700000000000  0.4162300000000000  0.1144200000000000
  0.6796899999999999  0.3203100000000000  0.5538100000000000
  0.3203100000000000  0.6796900000000000  0.4461899999999999
  0.4162300000000000  0.5837700000000000  0.8855799999999998
  0.0000000000000000  0.0000000000000000  0.0000000000000000
  0.8542800000000000  0.1457200000000000  0.3255600000000000
  0.1457199999999999  0.8542799999999998  0.6744400000000000
