Ni Re  S  N 
 1.0000000000000000
     3.3121000000000000    0.0000000000000000    0.0000000000000000
    -1.6560499999999994    2.8683627398744393    0.0000000000000000
     0.0000000000000000    0.0000000000000000    9.0113000000000003
 Ni  Re  S   N  
   2   2   2   1
Direct
  0.6666800000000001  0.3333400000000000  0.5907900000000000
  0.3333200000000001  0.6666600000000000  0.4092100000000000
  0.6666000000000002  0.3333000000000000  0.8947600000000000
  0.3334000000000000  0.6667000000000000  0.1052400000000000
  0.6666700000000001  0.3333400000000000  0.2829400000000000
  0.3333300000000001  0.6666600000000000  0.7170600000000000
  0.0000000000000000  0.0000000000000000  0.0000000000000000
