Fe Sc  C Se
 1.0000000000000000
     3.3029999999999999    0.0000000000000000    0.0000000000000000
    -1.6514999999999991    2.8604819087000011    0.0000000000000000
     0.0000000000000000    0.0000000000000000   25.8299999999999983
 Fe  Sc  C   Se
   3   6   3   6
Direct
  0.0000000000000000  0.0000000000000000  0.0000000000000000
  0.6666700000000000  0.3333300000000000  0.3333300000000001
  0.3333300000000000  0.6666700000000000  0.6666700000000001
  0.0000000000000000  0.0000000000000000  0.8787100000000000
  0.0000000000000000  0.0000000000000000  0.1212900000000000
  0.6666600000000000  0.3333400000000000  0.2120400000000000
  0.6666700000000000  0.3333300000000000  0.4546300000000000
  0.3333300000000000  0.6666700000000000  0.5453700000000000
  0.3333400000000000  0.6666600000000000  0.7879600000000000
  0.0000000000000000  0.0000000000000000  0.5000000000000000
  0.6666700000000000  0.3333300000000000  0.8333300000000000
  0.3333300000000000  0.6666700000000000  0.1666700000000000
  0.0000100000000001  0.9999900000000002  0.7170100000000001
  0.9999899999999998  0.0000100000000000  0.2829900000000000
  0.6666800000000001  0.3333200000000000  0.0503400000000000
  0.6666499999999999  0.3333500000000000  0.6163200000000000
  0.3333499999999999  0.6666500000000000  0.3836800000000001
  0.3333200000000000  0.6666800000000001  0.9496599999999999
