Nb  N Se 
 1.0000000000000000
     3.3435999999999999    0.0000000000000000    0.0000000000000000
    -1.6717999999999993    2.8956425400936490    0.0000000000000000
     0.0000000000000000    0.0000000000000000   11.5808999999999997
 Nb  N   Se 
   4   2   2
Direct
  0.3333300000000000  0.6666699999999999  0.4366900000000000
  0.6666700000000000  0.3333300000000000  0.5633100000000000
  0.6666700000000000  0.3333300000000000  0.9367000000000000
  0.3333300000000000  0.6666699999999999  0.0633000000000000
  0.0000000000000000  0.0000000000000000  0.0000000000000000
  0.0000000000000000  0.0000000000000000  0.5000000000000000
  0.3333300000000000  0.6666699999999999  0.7499900000000002
  0.6666700000000000  0.3333300000000000  0.2500100000000000
