Pt Se  P 
 1.0000000000000000
     3.2709999999999999    0.0000000000000000    0.0000000000000000
    -1.6354999999999993    2.8327690957788989    0.0000000000000000
     0.0000000000000000    0.0000000000000000   25.4780000000000015
 Pt  Se  P  
   6   6   3
Direct
  0.9999999999999997  0.9999999999999998  0.6138300000000000
  0.0000000000000000  0.0000000000000000  0.3861700000000000
  0.6666700000000000  0.3333300000000000  0.9471700000000000
  0.6666700000000000  0.3333300000000000  0.7195000000000000
  0.3333300000000000  0.6666700000000000  0.2805000000000000
  0.3333300000000000  0.6666700000000000  0.0528300000000000
  0.9999999999999997  0.9999999999999998  0.7815600000000000
  0.0000000000000000  0.0000000000000000  0.2184400000000000
  0.6666700000000000  0.3333300000000000  0.1148900000000000
  0.6666700000000000  0.3333300000000000  0.5517800000000000
  0.3333300000000000  0.6666700000000000  0.4482200000000000
  0.3333300000000000  0.6666700000000000  0.8851100000000000
  0.0000000000000000  0.0000000000000000  0.0000000000000000
  0.6666700000000000  0.3333300000000000  0.3333300000000000
  0.3333300000000000  0.6666700000000000  0.6666699999999999
