Rh Se Bi 
 1.0000000000000000
     3.2690000000000001    0.0000000000000000    0.0000000000000000
    -1.6344999999999994    2.8310370449713305    0.0000000000000000
     0.0000000000000000    0.0000000000000000    8.5470000000000006
 Rh  Se  Bi 
   2   2   1
Direct
  0.6665800000000000  0.3332900000000000  0.7999000000000001
  0.3334200000000000  0.6667100000000000  0.2001000000000000
  0.6668200000000000  0.3334100000000000  0.3502900000000000
  0.3331800000000000  0.6665900000000000  0.6497100000000000
  0.0000000000000000  0.0000000000000000  0.0000000000000000
