Ti  Y  N  S 
 1.0000000000000000
     3.3029999999999999    0.0000000000000000    0.0000000000000000
    -1.6514999999999991    2.8604819087000011    0.0000000000000000
     0.0000000000000000    0.0000000000000000   25.8299999999999983
 Ti  Y   N   S  
   3   6   3   6
Direct
  0.0000000000000000  0.0000000000000000  0.0000000000000000
  0.7189500000000000  0.2810500000000000  0.3237400000000001
  0.2810500000000000  0.7189500000000000  0.6762600000000000
  0.9851700000000000  0.0148300000000000  0.9015500000000001
  0.0148300000000000  0.9851700000000000  0.0984500000000000
  0.7128300000000000  0.2871700000000000  0.2030800000000000
  0.6686299999999999  0.3313700000000000  0.4695100000000000
  0.3313699999999999  0.6686299999999999  0.5304900000000000
  0.2871700000000000  0.7128300000000000  0.7969200000000000
  0.0000000000000000  0.0000000000000000  0.5000000000000000
  0.6206599999999999  0.3793400000000001  0.8131600000000000
  0.3793399999999999  0.6206600000000000  0.1868400000000000
  0.9602000000000001  0.0398000000000000  0.7002200000000000
  0.0398000000000000  0.9602000000000001  0.2997800000000000
  0.6811400000000000  0.3188600000000000  0.0636300000000000
  0.7731400000000000  0.2268600000000000  0.6127200000000000
  0.2268600000000000  0.7731400000000000  0.3872800000000000
  0.3188600000000000  0.6811400000000000  0.9363700000000000
