Ir  S Ga 
 1.0000000000000000
     3.2709999999999999    0.0000000000000000    0.0000000000000000
    -1.6354999999999993    2.8327690957788989    0.0000000000000000
     0.0000000000000000    0.0000000000000000   25.4780000000000015
 Ir  S   Ga 
   6   6   3
Direct
  0.0329399999999999  0.9670599999999998  0.5621699999999998
  0.9670599999999999  0.0329400000000000  0.4378300000000000
  0.6846299999999998  0.3153700000000000  0.9051299999999999
  0.4774699999999999  0.5225299999999999  0.7833599999999998
  0.5225300000000000  0.4774700000000000  0.2166400000000000
  0.3153699999999999  0.6846300000000000  0.0948700000000000
  0.8147700000000000  0.1852300000000000  0.8268699999999998
  0.1852300000000000  0.8147700000000000  0.1731300000000000
  0.8714400000000000  0.1285600000000000  0.1512700000000000
  0.7328999999999999  0.2671000000000000  0.5184000000000000
  0.2671000000000000  0.7329000000000000  0.4816000000000000
  0.1285599999999998  0.8714399999999998  0.8487299999999999
  0.0000000000000000  0.0000000000000000  0.0000000000000000
  0.5960100000000000  0.4039900000000000  0.3269500000000000
  0.4039899999999999  0.5960100000000000  0.6730499999999998
