Cu  V  C  S
 1.0000000000000000
     3.3029999999999999    0.0000000000000000    0.0000000000000000
    -1.6514999999999991    2.8604819087000011    0.0000000000000000
     0.0000000000000000    0.0000000000000000   25.8299999999999983
 Cu  V   C   S
   3   6   3   6
Direct
  0.0000000000000000  0.0000000000000000  0.0000000000000000
  0.6666700000000000  0.3333300000000000  0.3333300000000001
  0.3333300000000000  0.6666700000000000  0.6666700000000001
  0.0000000000000000  0.0000000000000000  0.8720400000000000
  0.0000000000000000  0.0000000000000000  0.1279600000000000
  0.6666700000000000  0.3333300000000000  0.2053700000000000
  0.6666700000000000  0.3333300000000000  0.4612900000000000
  0.3333300000000000  0.6666700000000000  0.5387100000000000
  0.3333300000000000  0.6666700000000000  0.7946299999999999
  0.0000000000000000  0.0000000000000000  0.5000000000000000
  0.6666700000000000  0.3333300000000000  0.8333300000000000
  0.3333300000000000  0.6666700000000000  0.1666700000000000
  0.0000000000000000  0.0000000000000000  0.7321400000000000
  0.0000000000000000  0.0000000000000000  0.2678600000000000
  0.6666700000000000  0.3333300000000000  0.0654600000000000
  0.6666700000000000  0.3333300000000000  0.6012000000000000
  0.3333300000000000  0.6666700000000000  0.3988000000000000
  0.3333300000000000  0.6666700000000000  0.9345400000000003
