Re Se Si 
 1.0000000000000000
     3.2709999999999999    0.0000000000000000    0.0000000000000000
    -1.6354999999999993    2.8327690957788989    0.0000000000000000
     0.0000000000000000    0.0000000000000000   25.4780000000000015
 Re  Se  Si 
   6   6   3
Direct
  0.9999999999999997  0.9999999999999998  0.6245500000000000
  0.0000000000000000  0.0000000000000000  0.3754499999999999
  0.6666700000000000  0.3333300000000000  0.9578800000000000
  0.6666700000000000  0.3333300000000000  0.7087900000000000
  0.3333300000000000  0.6666700000000000  0.2912100000000000
  0.3333300000000000  0.6666700000000000  0.0421200000000000
  0.0000000000000000  0.0000000000000000  0.7743899999999998
  0.9999999999999997  0.9999999999999998  0.2256100000000000
  0.6666700000000000  0.3333300000000000  0.1077300000000000
  0.6666700000000000  0.3333300000000000  0.5589400000000000
  0.3333300000000000  0.6666700000000000  0.4410600000000000
  0.3333300000000000  0.6666700000000000  0.8922700000000000
  0.0000000000000000  0.0000000000000000  0.0000000000000000
  0.6666700000000000  0.3333300000000000  0.3333300000000000
  0.3333300000000000  0.6666700000000000  0.6666699999999999
