Zn Ru  N Se 
 1.0000000000000000
     3.3029999999999999    0.0000000000000000    0.0000000000000000
    -1.6514999999999993    2.8604819087000011    0.0000000000000000
     0.0000000000000000    0.0000000000000000   25.8299999999999983
 Zn  Ru  N   Se 
   3   6   3   6
Direct
  0.0000000000000000  0.0000000000000000  0.0000000000000000
  0.6666700000000000  0.3333300000000000  0.3340700000000000
  0.3333300000000000  0.6666700000000000  0.6659300000000000
  0.0000200000000001  0.9999800000000001  0.8733800000000000
  0.9999800000000000  0.0000200000000000  0.1266200000000000
  0.6666900000000000  0.3333100000000000  0.2072900000000000
  0.6666400000000000  0.3333600000000000  0.4597700000000000
  0.3333600000000000  0.6666400000000000  0.5402300000000000
  0.3333099999999999  0.6666900000000000  0.7927100000000000
  0.0000000000000000  0.0000000000000000  0.5000000000000000
  0.6666900000000000  0.3333100000000000  0.8375300000000000
  0.3333099999999999  0.6666900000000000  0.1624700000000000
  0.9999699999999998  0.0000300000000000  0.7559600000000000
  0.0000300000000000  0.9999700000000000  0.2440400000000000
  0.6666499999999999  0.3333500000000000  0.0899300000000000
  0.6666999999999998  0.3333000000000000  0.5773400000000000
  0.3332999999999999  0.6667000000000000  0.4226600000000000
  0.3333499999999999  0.6666500000000000  0.9100700000000000
