Nb Se Ge 
 1.0000000000000000
     3.2709999999999999    0.0000000000000000    0.0000000000000000
    -1.6354999999999993    2.8327690957788989    0.0000000000000000
     0.0000000000000000    0.0000000000000000   25.4780000000000015
 Nb  Se  Ge 
   6   6   3
Direct
  0.0074500000000000  0.9925500000000000  0.5855800000000000
  0.9925500000000000  0.0074500000000000  0.4144200000000000
  0.4996300000000000  0.5003700000000000  0.9166500000000000
  0.6377799999999999  0.3622200000000000  0.7002799999999999
  0.3622199999999999  0.6377799999999999  0.2997200000000000
  0.5003699999999999  0.4996299999999999  0.0833500000000000
  0.8787000000000000  0.1213000000000000  0.7727100000000000
  0.1212999999999999  0.8786999999999998  0.2272900000000000
  0.8321499999999998  0.1678500000000000  0.1166300000000000
  0.6718600000000000  0.3281400000000000  0.5527400000000000
  0.3281399999999998  0.6718599999999998  0.4472600000000000
  0.1678499999999999  0.8321499999999998  0.8833700000000000
 -0.0000000000000001  0.9999999999999998  0.0000000000000000
  0.7054100000000000  0.2945900000000000  0.3359400000000000
  0.2945900000000000  0.7054100000000000  0.6640599999999999
