Zn Se Si 
 1.0000000000000000
     3.2709999999999999    0.0000000000000000    0.0000000000000000
    -1.6354999999999993    2.8327690957788989    0.0000000000000000
     0.0000000000000000    0.0000000000000000   25.4780000000000015
 Zn  Se  Si 
   6   6   3
Direct
  0.9741600000000000  0.0258400000000000  0.5834000000000000
  0.0258400000000000  0.9741600000000000  0.4166000000000000
  0.7321200000000000  0.2678800000000000  0.9152699999999999
  0.5919400000000001  0.4080600000000000  0.7472100000000000
  0.4080599999999999  0.5919399999999999  0.2527900000000000
  0.2678800000000000  0.7321200000000000  0.0847300000000000
  0.0079800000000000  0.9920200000000000  0.8126499999999999
  0.9920200000000000  0.0079800000000000  0.1873500000000000
  0.6971299999999999  0.3028700000000000  0.1529500000000000
  0.6859499999999998  0.3140499999999999  0.5149800000000000
  0.3140499999999999  0.6859499999999999  0.4850200000000000
  0.3028699999999999  0.6971300000000000  0.8470500000000000
  0.0000000000000000  0.0000000000000000  0.0000000000000000
  0.7804700000000000  0.2195300000000000  0.3335300000000000
  0.2195300000000000  0.7804700000000000  0.6664700000000000
