Ag Se In 
 1.0000000000000000
     3.2690000000000001    0.0000000000000000    0.0000000000000000
    -1.6344999999999994    2.8310370449713305    0.0000000000000000
     0.0000000000000000    0.0000000000000000    8.5470000000000006
 Ag  Se  In 
   2   2   1
Direct
  0.6803300000000000  0.3401600000000001  0.7720999999999999
  0.3196700000000000  0.6598400000000001  0.2279000000000000
  0.6236200000000000  0.3118100000000000  0.4376800000000000
  0.3763799999999999  0.6881900000000000  0.5623200000000000
  0.0000000000000000  0.0000000000000000  0.0000000000000000
