Ru Te Ga 
 1.0000000000000000
     3.2690000000000001    0.0000000000000000    0.0000000000000000
    -1.6344999999999994    2.8310370449713305    0.0000000000000000
     0.0000000000000000    0.0000000000000000    8.5470000000000006
 Ru  Te  Ga 
   2   2   1
Direct
  0.6664599999999998  0.3332300000000000  0.8487100000000000
  0.3335400000000001  0.6667700000000001  0.1512900000000000
  0.6664499999999998  0.3332300000000000  0.3185800000000000
  0.3335500000000000  0.6667700000000001  0.6814200000000000
  0.0000000000000000  0.0000000000000000  0.0000000000000000
