Nb Se Si 
 1.0000000000000000
     3.2709999999999999    0.0000000000000000    0.0000000000000000
    -1.6354999999999993    2.8327690957788989    0.0000000000000000
     0.0000000000000000    0.0000000000000000   25.4780000000000015
 Nb  Se  Si 
   6   6   3
Direct
  0.0000100000000000  0.9999899999999999  0.6345900000000000
  0.9999900000000000  0.0000100000000000  0.3654100000000000
  0.6666700000000000  0.3333300000000000  0.9679900000000000
  0.6666700000000000  0.3333300000000000  0.6986100000000000
  0.3333300000000000  0.6666700000000000  0.3013900000000000
  0.3333300000000000  0.6666700000000000  0.0320100000000000
  0.0000000000000000  0.0000000000000000  0.7734400000000000
  0.9999999999999997  0.9999999999999998  0.2265600000000000
  0.6666600000000000  0.3333400000000000  0.1067100000000000
  0.6666600000000000  0.3333400000000000  0.5599900000000000
  0.3333400000000000  0.6666600000000000  0.4400100000000000
  0.3333400000000000  0.6666600000000000  0.8932900000000000
  0.0000000000000000  0.0000000000000000  0.0000000000000000
  0.6666700000000000  0.3333300000000000  0.3333800000000000
  0.3333300000000000  0.6666700000000000  0.6666200000000000
