Mg Os  S  C 
 1.0000000000000000
     3.3121000000000000    0.0000000000000000    0.0000000000000000
    -1.6560499999999991    2.8683627398744393    0.0000000000000000
     0.0000000000000000    0.0000000000000000    9.0113000000000003
 Mg  Os  S   C  
   2   2   2   1
Direct
  0.6666700000000001  0.3333400000000000  0.5976000000000000
  0.3333300000000001  0.6666600000000000  0.4024000000000000
  0.6666800000000001  0.3333400000000000  0.9024200000000001
  0.3333200000000001  0.6666600000000000  0.0975800000000000
  0.6666500000000000  0.3333200000000000  0.2521600000000000
  0.3333500000000000  0.6666800000000001  0.7478399999999999
  0.0000000000000000  0.0000000000000000  0.0000000000000000
