Pt  S Bi 
 1.0000000000000000
     3.2709999999999999    0.0000000000000000    0.0000000000000000
    -1.6354999999999993    2.8327690957788989    0.0000000000000000
     0.0000000000000000    0.0000000000000000   25.4780000000000015
 Pt  S   Bi 
   6   6   3
Direct
  0.9000400000000000  0.0999600000000000  0.5984100000000000
  0.0999600000000000  0.9000400000000000  0.4015900000000000
  0.6660399999999999  0.3339599999999999  0.9296700000000000
  0.7056800000000000  0.2943200000000000  0.7501300000000000
  0.2943200000000000  0.7056799999999999  0.2498700000000000
  0.3339599999999999  0.6660400000000000  0.0703300000000000
  0.0554099999999999  0.9445899999999998  0.8175200000000000
  0.9445899999999999  0.0554100000000000  0.1824800000000000
  0.6408199999999999  0.3591799999999999  0.1824500000000000
  0.6478500000000000  0.3521500000000000  0.4898000000000000
  0.3521500000000000  0.6478500000000000  0.5102000000000000
  0.3591799999999999  0.6408199999999999  0.8175500000000000
  0.0000000000000000  0.0000000000000000  0.0000000000000000
  0.7739900000000000  0.2260099999999999  0.3313400000000000
  0.2260100000000000  0.7739900000000000  0.6686600000000000
