Ti  S As 
 1.0000000000000000
     3.2709999999999999    0.0000000000000000    0.0000000000000000
    -1.6354999999999993    2.8327690957788989    0.0000000000000000
     0.0000000000000000    0.0000000000000000   25.4780000000000015
 Ti  S   As 
   6   6   3
Direct
  0.0687300000000000  0.9312700000000000  0.5811700000000000
  0.9312700000000000  0.0687300000000000  0.4188300000000000
  0.3298899999999999  0.6701099999999999  0.9197300000000000
  0.7500200000000000  0.2499800000000000  0.7467600000000000
  0.2499800000000000  0.7500200000000000  0.2532400000000000
  0.6701100000000000  0.3298900000000000  0.0802700000000000
  0.0839099999999999  0.9160899999999998  0.7752399999999999
  0.9160900000000000  0.0839100000000000  0.2247600000000000
  0.0042800000000000  0.9957200000000000  0.1072200000000000
  0.7349200000000000  0.2650800000000000  0.5574300000000000
  0.2650799999999999  0.7349199999999998  0.4425699999999999
  0.9957200000000000  0.0042800000000000  0.8927800000000000
  0.0000000000000000  0.0000000000000000  0.0000000000000000
  0.9193600000000000  0.0806400000000000  0.3231300000000000
  0.0806399999999999  0.9193599999999997  0.6768700000000000
