Hg  S  C 
 1.0000000000000000
     3.2709999999999999    0.0000000000000000    0.0000000000000000
    -1.6354999999999991    2.8327690957788989    0.0000000000000000
     0.0000000000000000    0.0000000000000000   25.4780000000000015
 Hg  S   C  
   6   6   3
Direct
  0.9999999999999997  0.9999999999999998  0.6088700000000000
  0.0000000000000000  0.0000000000000000  0.3911300000000000
  0.6666600000000000  0.3333400000000000  0.9422100000000000
  0.6666600000000000  0.3333400000000000  0.7244600000000000
  0.3333400000000000  0.6666600000000000  0.2755400000000000
  0.3333400000000000  0.6666600000000000  0.0577900000000000
  0.9999999999999997  0.9999999999999998  0.8013299999999999
  0.0000000000000000  0.0000000000000000  0.1986700000000000
  0.6666700000000000  0.3333300000000000  0.1346600000000000
  0.6666700000000000  0.3333300000000000  0.5320100000000000
  0.3333300000000000  0.6666700000000000  0.4679900000000000
  0.3333300000000000  0.6666700000000000  0.8653400000000000
  0.0000000000000000  0.0000000000000000  0.0000000000000000
  0.6666700000000000  0.3333300000000000  0.3333400000000000
  0.3333300000000000  0.6666700000000000  0.6666599999999999
