Au Se  P 
 1.0000000000000000
     3.2709999999999999    0.0000000000000000    0.0000000000000000
    -1.6354999999999993    2.8327690957788989    0.0000000000000000
     0.0000000000000000    0.0000000000000000   25.4780000000000015
 Au  Se  P  
   6   6   3
Direct
  0.9999999999999997  0.9999999999999998  0.6089900000000000
  0.0000000000000000  0.0000000000000000  0.3910100000000000
  0.6666700000000000  0.3333300000000000  0.9423200000000000
  0.6666700000000000  0.3333300000000000  0.7243400000000000
  0.3333300000000000  0.6666700000000000  0.2756600000000000
  0.3333300000000000  0.6666700000000000  0.0576800000000000
  0.9999999999999997  0.9999999999999998  0.7913100000000000
  0.0000000000000000  0.0000000000000000  0.2086900000000000
  0.6666700000000000  0.3333300000000000  0.1246400000000000
  0.6666700000000000  0.3333300000000000  0.5420300000000000
  0.3333300000000000  0.6666700000000000  0.4579700000000000
  0.3333300000000000  0.6666700000000000  0.8753600000000000
  0.0000000000000000  0.0000000000000000  0.0000000000000000
  0.6666700000000000  0.3333300000000000  0.3333300000000000
  0.3333300000000000  0.6666700000000000  0.6666699999999999
