Cu  S Ge 
 1.0000000000000000
     3.2690000000000001    0.0000000000000000    0.0000000000000000
    -1.6344999999999994    2.8310370449713305    0.0000000000000000
     0.0000000000000000    0.0000000000000000    8.5470000000000006
 Cu  S   Ge 
   2   2   1
Direct
  0.5366900000000000  0.2683400000000000  0.7655100000000000
  0.4633099999999999  0.7316600000000000  0.2344900000000000
  0.6264600000000001  0.3132300000000001  0.5075700000000000
  0.3735399999999999  0.6867700000000000  0.4924300000000000
  0.0000000000000000  0.0000000000000000  0.0000000000000000
