Co Re  N  S 
 1.0000000000000000
     3.3029999999999999    0.0000000000000000    0.0000000000000000
    -1.6514999999999991    2.8604819087000011    0.0000000000000000
     0.0000000000000000    0.0000000000000000   25.8299999999999983
 Co  Re  N   S  
   3   6   3   6
Direct
  0.0000000000000000  0.0000000000000000  0.0000000000000000
  0.5816100000000000  0.4183900000000000  0.2864300000000000
  0.4183899999999999  0.5816100000000000  0.7135700000000000
  0.9468599999999998  0.0531400000000000  0.9072500000000000
  0.0531400000000000  0.9468600000000000  0.0927500000000000
  0.6815300000000000  0.3184700000000000  0.1959200000000000
  0.7301800000000001  0.2698200000000000  0.4586800000000000
  0.2698200000000000  0.7301800000000001  0.5413200000000000
  0.3184700000000000  0.6815300000000000  0.8040800000000000
  0.0000000000000000  0.0000000000000000  0.5000000000000000
  0.7942900000000001  0.2057100000000000  0.8390100000000000
  0.2057100000000000  0.7942900000000001  0.1609900000000000
  0.0467900000000001  0.9532100000000001  0.7523800000000002
  0.9532100000000000  0.0467900000000000  0.2476200000000000
  0.7071800000000000  0.2928200000000000  0.0572900000000000
  0.6312100000000000  0.3687900000000000  0.5815000000000000
  0.3687900000000000  0.6312100000000000  0.4185000000000000
  0.2928200000000000  0.7071800000000000  0.9427100000000000
