Sc  Y  C  S
 1.0000000000000000
     3.3029999999999999    0.0000000000000000    0.0000000000000000
    -1.6514999999999991    2.8604819087000011    0.0000000000000000
     0.0000000000000000    0.0000000000000000   25.8299999999999983
 Sc  Y   C   S
   3   6   3   6
Direct
  0.0000000000000000  0.0000000000000000  0.0000000000000000
  0.6666700000000000  0.3333300000000000  0.3333300000000001
  0.3333300000000000  0.6666700000000000  0.6666700000000001
  0.0000000000000000  0.0000000000000000  0.8811500000000000
  0.0000000000000000  0.0000000000000000  0.1188500000000000
  0.6666700000000000  0.3333300000000000  0.2144800000000000
  0.6666700000000000  0.3333300000000000  0.4521800000000000
  0.3333300000000000  0.6666700000000000  0.5478200000000000
  0.3333300000000000  0.6666700000000000  0.7855200000000000
  0.0000000000000000  0.0000000000000000  0.5000000000000000
  0.6666700000000000  0.3333300000000000  0.8333300000000000
  0.3333300000000000  0.6666700000000000  0.1666700000000000
  0.0000000000000000  0.0000000000000000  0.7205600000000000
  0.0000000000000000  0.0000000000000000  0.2794400000000000
  0.6666700000000000  0.3333300000000000  0.0538900000000000
  0.6666700000000000  0.3333300000000000  0.6127700000000000
  0.3333300000000000  0.6666700000000000  0.3872300000000000
  0.3333300000000000  0.6666700000000000  0.9461100000000000
