Zn  W  N  S 
 1.0000000000000000
     3.3029999999999999    0.0000000000000000    0.0000000000000000
    -1.6514999999999991    2.8604819087000011    0.0000000000000000
     0.0000000000000000    0.0000000000000000   25.8299999999999983
 Zn  W   N   S  
   3   6   3   6
Direct
  0.0000000000000000  0.0000000000000000  0.0000000000000000
  0.6666700000000000  0.3333300000000000  0.3333500000000000
  0.3333300000000000  0.6666700000000000  0.6666500000000000
  0.0000000000000000  0.0000000000000000  0.8625000000000000
  0.0000000000000000  0.0000000000000000  0.1375000000000000
  0.6666700000000000  0.3333300000000000  0.1956700000000000
  0.6666600000000000  0.3333400000000000  0.4709200000000000
  0.3333400000000000  0.6666600000000000  0.5290800000000000
  0.3333300000000000  0.6666700000000000  0.8043300000000000
  0.0000000000000000  0.0000000000000000  0.5000000000000000
  0.6666700000000000  0.3333300000000000  0.8336400000000000
  0.3333300000000000  0.6666700000000000  0.1663600000000000
  0.0000000000000000  0.0000000000000000  0.7589000000000002
  0.0000000000000000  0.0000000000000000  0.2411000000000000
  0.6666700000000000  0.3333300000000000  0.0920600000000000
  0.6666700000000000  0.3333300000000000  0.5745300000000000
  0.3333300000000000  0.6666700000000000  0.4254700000000001
  0.3333300000000000  0.6666700000000000  0.9079400000000000
