Mn Mo  N Se 
 1.0000000000000000
     3.3029999999999999    0.0000000000000000    0.0000000000000000
    -1.6514999999999993    2.8604819087000011    0.0000000000000000
     0.0000000000000000    0.0000000000000000   25.8299999999999983
 Mn  Mo  N   Se 
   3   6   3   6
Direct
  0.0000000000000000  0.0000000000000000  0.0000000000000000
  0.6724799999999997  0.3275200000000000  0.3793200000000000
  0.3275200000000000  0.6724800000000000  0.6206800000000000
  0.9996400000000000  0.0003600000000000  0.8394200000000001
  0.0003600000000000  0.9996400000000000  0.1605800000000000
  0.6668500000000001  0.3331500000000000  0.2231100000000000
  0.6915700000000000  0.3084300000000000  0.4677300000000000
  0.3084300000000000  0.6915700000000000  0.5322700000000000
  0.3331500000000000  0.6668500000000001  0.7768900000000000
  0.0000000000000000  0.0000000000000000  0.5000000000000000
  0.6663200000000000  0.3336800000000000  0.8296000000000000
  0.3336800000000000  0.6663200000000000  0.1704000000000000
  0.9998700000000000  0.0001300000000000  0.7284700000000000
  0.0001300000000000  0.9998700000000000  0.2715300000000000
  0.6666400000000000  0.3333600000000000  0.0464000000000000
  0.6591700000000000  0.3408300000000000  0.5875899999999999
  0.3408300000000000  0.6591700000000000  0.4124100000000000
  0.3333600000000000  0.6666400000000000  0.9536000000000000
