Mn Te  C 
 1.0000000000000000
     3.2709999999999999    0.0000000000000000    0.0000000000000000
    -1.6354999999999991    2.8327690957788989    0.0000000000000000
     0.0000000000000000    0.0000000000000000   25.4780000000000015
 Mn  Te  C  
   6   6   3
Direct
  0.9999999999999997  0.9999999999999998  0.6336500000000000
  0.0000000000000000  0.0000000000000000  0.3663500000000000
  0.6666700000000000  0.3333300000000000  0.9669900000000000
  0.6666600000000000  0.3333400000000000  0.6996800000000000
  0.3333400000000000  0.6666600000000000  0.3003200000000000
  0.3333300000000000  0.6666700000000000  0.0330100000000000
  0.0000000000000000  0.0000000000000000  0.7715500000000000
  0.9999999999999997  0.9999999999999998  0.2284500000000000
  0.6666600000000000  0.3333400000000000  0.1048800000000000
  0.6666700000000000  0.3333300000000000  0.5617799999999999
  0.3333300000000000  0.6666700000000000  0.4382199999999999
  0.3333400000000000  0.6666600000000000  0.8951199999999999
  0.0000000000000000  0.0000000000000000  0.0000000000000000
  0.6666700000000000  0.3333300000000000  0.3333300000000000
  0.3333300000000000  0.6666700000000000  0.6666699999999999
