 V Te Si 
 1.0000000000000000
     3.2709999999999999    0.0000000000000000    0.0000000000000000
    -1.6354999999999993    2.8327690957788989    0.0000000000000000
     0.0000000000000000    0.0000000000000000   25.4780000000000015
 V   Te  Si 
   6   6   3
Direct
  0.9999800000000000  0.0000200000000000  0.6371400000000000
  0.0000199999999999  0.9999799999999998  0.3628600000000000
  0.6666600000000000  0.3333400000000000  0.9704600000000000
  0.6666500000000000  0.3333500000000000  0.6962100000000000
  0.3333499999999999  0.6666499999999999  0.3037900000000000
  0.3333400000000000  0.6666600000000000  0.0295400000000000
  0.0000399999999999  0.9999599999999998  0.7704900000000000
  0.9999600000000000  0.0000400000000000  0.2295100000000000
  0.6665400000000000  0.3334600000000000  0.1037900000000000
  0.6667000000000000  0.3333000000000000  0.5628200000000000
  0.3332999999999999  0.6667000000000000  0.4371800000000000
  0.3334600000000000  0.6665400000000000  0.8962100000000000
  0.0000000000000000  0.0000000000000000  0.0000000000000000
  0.6666900000000000  0.3333099999999999  0.3333300000000000
  0.3333100000000000  0.6666900000000000  0.6666699999999999
