Ag Ir  C  S
 1.0000000000000000
     3.3029999999999999    0.0000000000000000    0.0000000000000000
    -1.6514999999999991    2.8604819087000011    0.0000000000000000
     0.0000000000000000    0.0000000000000000   25.8299999999999983
 Ag  Ir  C   S
   3   6   3   6
Direct
  0.0000000000000000  0.0000000000000000  0.0000000000000000
  0.6666700000000000  0.3333300000000000  0.3333300000000001
  0.3333300000000000  0.6666700000000000  0.6666700000000001
  0.9999899999999998  0.0000100000000000  0.8720400000000000
  0.0000100000000001  0.9999900000000002  0.1279600000000000
  0.6666700000000000  0.3333300000000000  0.2053700000000000
  0.6666700000000000  0.3333300000000000  0.4613000000000000
  0.3333300000000000  0.6666700000000000  0.5387000000000000
  0.3333300000000000  0.6666700000000000  0.7946299999999999
  0.0000000000000000  0.0000000000000000  0.5000000000000000
  0.6666700000000000  0.3333300000000000  0.8333300000000000
  0.3333300000000000  0.6666700000000000  0.1666700000000000
  0.0000000000000000  0.0000000000000000  0.7385900000000000
  0.0000000000000000  0.0000000000000000  0.2614100000000000
  0.6666700000000000  0.3333300000000000  0.0719200000000000
  0.6666600000000000  0.3333400000000000  0.5947400000000000
  0.3333400000000000  0.6666600000000000  0.4052600000000001
  0.3333300000000000  0.6666700000000000  0.9280800000000000
