Zn Sc  N  S 
 1.0000000000000000
     3.3029999999999999    0.0000000000000000    0.0000000000000000
    -1.6514999999999991    2.8604819087000011    0.0000000000000000
     0.0000000000000000    0.0000000000000000   25.8299999999999983
 Zn  Sc  N   S  
   3   6   3   6
Direct
  0.0000000000000000  0.0000000000000000  0.0000000000000000
  0.8166900000000000  0.1833100000000000  0.3419600000000000
  0.1833100000000000  0.8166900000000000  0.6580400000000002
  0.9254200000000000  0.0745800000000000  0.8818600000000000
  0.0745800000000000  0.9254200000000000  0.1181400000000000
  0.4772900000000000  0.5227100000000000  0.2559800000000000
  0.7326299999999998  0.2673700000000000  0.4609200000000000
  0.2673699999999999  0.7326300000000001  0.5390800000000000
  0.5227100000000000  0.4772900000000000  0.7440200000000000
  0.0000000000000000  0.0000000000000000  0.5000000000000000
  0.8490400000000000  0.1509600000000000  0.7604300000000001
  0.1509600000000000  0.8490400000000000  0.2395700000000000
  0.0791400000000000  0.9208600000000000  0.7936100000000000
  0.9208599999999998  0.0791400000000000  0.2063900000000000
  0.7427299999999998  0.2572700000000000  0.0970200000000000
  0.6431400000000000  0.3568600000000000  0.5768900000000000
  0.3568600000000000  0.6431400000000000  0.4231100000000000
  0.2572700000000000  0.7427300000000001  0.9029800000000001
