Au Se Sn 
 1.0000000000000000
     3.2690000000000001    0.0000000000000000    0.0000000000000000
    -1.6344999999999994    2.8310370449713305    0.0000000000000000
     0.0000000000000000    0.0000000000000000    8.5470000000000006
 Au  Se  Sn 
   2   2   1
Direct
  0.6943200000000000  0.3471600000000000  0.7773000000000000
  0.3056800000000000  0.6528400000000000  0.2227000000000000
  0.6226800000000000  0.3113400000000000  0.4480600000000000
  0.3773200000000000  0.6886600000000000  0.5519400000000000
  0.0000000000000000  0.0000000000000000  0.0000000000000000
