Hg Te  N 
 1.0000000000000000
     3.2709999999999999    0.0000000000000000    0.0000000000000000
    -1.6354999999999991    2.8327690957788989    0.0000000000000000
     0.0000000000000000    0.0000000000000000   25.4780000000000015
 Hg  Te  N  
   6   6   3
Direct
  0.0000000000000000  0.0000000000000000  0.6188100000000000
  0.9999999999999997  0.9999999999999998  0.3811899999999999
  0.6666700000000000  0.3333300000000000  0.9521399999999998
  0.6666700000000000  0.3333300000000000  0.7145200000000000
  0.3333300000000000  0.6666700000000000  0.2854800000000000
  0.3333300000000000  0.6666700000000000  0.0478600000000000
  0.9999999999999997  0.9999999999999998  0.7917599999999999
  0.0000000000000000  0.0000000000000000  0.2082400000000000
  0.6666700000000000  0.3333300000000000  0.1251000000000000
  0.6666700000000000  0.3333300000000000  0.5415700000000000
  0.3333300000000000  0.6666700000000000  0.4584299999999999
  0.3333300000000000  0.6666700000000000  0.8749000000000000
  0.0000000000000000  0.0000000000000000  0.0000000000000000
  0.6666700000000000  0.3333300000000000  0.3333300000000000
  0.3333300000000000  0.6666700000000000  0.6666699999999999
