Ru  B  S 
 1.0000000000000000
     3.3435999999999999    0.0000000000000000    0.0000000000000000
    -1.6717999999999993    2.8956425400936490    0.0000000000000000
     0.0000000000000000    0.0000000000000000   11.5808999999999997
 Ru  B   S  
   4   2   2
Direct
  0.3497799999999999  0.6502199999999999  0.4151700000000000
  0.6502200000000000  0.3497800000000000  0.5848300000000000
  0.6501899999999998  0.3498100000000000  0.9151999999999999
  0.3498100000000000  0.6501900000000000  0.0848000000000000
  0.0000000000000000  0.0000000000000000  0.0000000000000000
  0.0000000000000000  0.0000000000000000  0.5000000000000000
  0.1632000000000000  0.8368000000000000  0.7499400000000001
  0.8368000000000000  0.1632000000000000  0.2500600000000000
