Cu Hf  C Se
 1.0000000000000000
     3.3029999999999999    0.0000000000000000    0.0000000000000000
    -1.6514999999999993    2.8604819087000011    0.0000000000000000
     0.0000000000000000    0.0000000000000000   25.8299999999999983
 Cu  Hf  C   Se
   3   6   3   6
Direct
  0.0000000000000000  0.0000000000000000  0.0000000000000000
  0.7041400000000000  0.2958600000000000  0.3260800000000000
  0.2958600000000000  0.7041400000000001  0.6739200000000000
  0.0192900000000000  0.9807100000000000  0.8617700000000000
  0.9807100000000000  0.0192900000000000  0.1382300000000000
  0.6541500000000000  0.3458500000000000  0.1982200000000000
  0.6626400000000000  0.3373600000000000  0.4712800000000000
  0.3373600000000000  0.6626400000000000  0.5287200000000000
  0.3458500000000000  0.6541500000000000  0.8017800000000000
  0.0000000000000000  0.0000000000000000  0.5000000000000000
  0.6928400000000000  0.3071600000000000  0.8437200000000000
  0.3071599999999999  0.6928400000000000  0.1562800000000000
  0.0318400000000001  0.9681600000000000  0.7452700000000000
  0.9681600000000000  0.0318400000000000  0.2547300000000000
  0.4860899999999999  0.5139100000000000  0.0702000000000000
  0.5682000000000000  0.4318000000000000  0.6060100000000000
  0.4318000000000000  0.5682000000000000  0.3939900000000001
  0.5139100000000000  0.4860900000000000  0.9298000000000000
