Nb Te Pb 
 1.0000000000000000
     3.2709999999999999    0.0000000000000000    0.0000000000000000
    -1.6354999999999993    2.8327690957788989    0.0000000000000000
     0.0000000000000000    0.0000000000000000   25.4780000000000015
 Nb  Te  Pb 
   6   6   3
Direct
  0.9999999999999997  0.9999999999999998  0.5859100000000000
  0.0000000000000000  0.0000000000000000  0.4140900000000000
  0.6666600000000000  0.3333400000000000  0.9192399999999997
  0.6666700000000000  0.3333300000000000  0.7474300000000000
  0.3333300000000000  0.6666700000000000  0.2525700000000000
  0.3333400000000000  0.6666600000000000  0.0807600000000000
  0.0000000000000000  0.0000000000000000  0.7860600000000000
  0.9999999999999997  0.9999999999999998  0.2139400000000000
  0.6666700000000000  0.3333300000000000  0.1193900000000000
  0.6666700000000000  0.3333300000000000  0.5472700000000000
  0.3333300000000000  0.6666700000000000  0.4527300000000000
  0.3333300000000000  0.6666700000000000  0.8806100000000000
  0.0000000000000000  0.0000000000000000  0.0000000000000000
  0.6666700000000000  0.3333300000000000  0.3333300000000000
  0.3333300000000000  0.6666700000000000  0.6666699999999999
