 W Te  N 
 1.0000000000000000
     3.2709999999999999    0.0000000000000000    0.0000000000000000
    -1.6354999999999991    2.8327690957788989    0.0000000000000000
     0.0000000000000000    0.0000000000000000   25.4780000000000015
 W   Te  N  
   6   6   3
Direct
  0.9999999999999997  0.9999999999999998  0.6298000000000000
  0.0000000000000000  0.0000000000000000  0.3702000000000000
  0.6666700000000000  0.3333300000000000  0.9631399999999998
  0.6666600000000000  0.3333400000000000  0.7035300000000000
  0.3333400000000000  0.6666600000000000  0.2964700000000000
  0.3333300000000000  0.6666700000000000  0.0368600000000000
  0.9999999999999997  0.9999999999999998  0.7811699999999999
  0.0000000000000000  0.0000000000000000  0.2188300000000000
  0.6666700000000000  0.3333300000000000  0.1145100000000000
  0.6666700000000000  0.3333300000000000  0.5521600000000000
  0.3333300000000000  0.6666700000000000  0.4478400000000000
  0.3333300000000000  0.6666700000000000  0.8854900000000000
  0.0000000000000000  0.0000000000000000  0.0000000000000000
  0.6666700000000000  0.3333300000000000  0.3333300000000000
  0.3333300000000000  0.6666700000000000  0.6666699999999999
