Hg  S Si 
 1.0000000000000000
     3.2690000000000001    0.0000000000000000    0.0000000000000000
    -1.6344999999999994    2.8310370449713305    0.0000000000000000
     0.0000000000000000    0.0000000000000000    8.5470000000000006
 Hg  S   Si 
   2   2   1
Direct
  0.0002700000000000  0.5001300000000000  0.7587500000000000
  0.9997299999999998  0.4998700000000000  0.2412500000000000
  0.6406599999999998  0.3203300000000000  0.4999900000000000
  0.3593400000000000  0.6796700000000000  0.5000100000000000
  0.0000000000000000  0.0000000000000000  0.0000000000000000
