Zn Zr  N  S 
 1.0000000000000000
     3.3029999999999999    0.0000000000000000    0.0000000000000000
    -1.6514999999999991    2.8604819087000011    0.0000000000000000
     0.0000000000000000    0.0000000000000000   25.8299999999999983
 Zn  Zr  N   S  
   3   6   3   6
Direct
  0.0000000000000000  0.0000000000000000  0.0000000000000000
  0.6689799999999998  0.3310200000000000  0.3395000000000000
  0.3310199999999999  0.6689800000000000  0.6605000000000000
  0.9812199999999998  0.0187800000000000  0.8580100000000001
  0.0187800000000000  0.9812200000000000  0.1419900000000000
  0.7195700000000000  0.2804300000000000  0.2078000000000000
  0.6670599999999999  0.3329400000000000  0.4680200000000001
  0.3329400000000000  0.6670600000000000  0.5319800000000000
  0.2804300000000000  0.7195700000000000  0.7922000000000001
  0.0000000000000000  0.0000000000000000  0.5000000000000000
  0.6654200000000000  0.3345800000000000  0.8419500000000000
  0.3345799999999999  0.6654200000000000  0.1580500000000000
  0.9635700000000000  0.0364300000000000  0.7592100000000001
  0.0364299999999999  0.9635699999999999  0.2407900000000000
  0.5529800000000000  0.4470199999999999  0.0893100000000000
  0.6648599999999999  0.3351400000000000  0.5716599999999999
  0.3351400000000000  0.6648600000000000  0.4283400000000000
  0.4470200000000000  0.5529800000000000  0.9106900000000000
