Cu Ag  C Se
 1.0000000000000000
     3.3029999999999999    0.0000000000000000    0.0000000000000000
    -1.6514999999999993    2.8604819087000011    0.0000000000000000
     0.0000000000000000    0.0000000000000000   25.8299999999999983
 Cu  Ag  C   Se
   3   6   3   6
Direct
  0.0000000000000000  0.0000000000000000  0.0000000000000000
  0.6666700000000000  0.3333300000000000  0.3333300000000001
  0.3333300000000000  0.6666700000000000  0.6666700000000001
  0.0000000000000000  0.0000000000000000  0.8785800000000000
  0.0000000000000000  0.0000000000000000  0.1214200000000000
  0.6666700000000000  0.3333300000000000  0.2119100000000000
  0.6666700000000000  0.3333300000000000  0.4547500000000001
  0.3333300000000000  0.6666700000000000  0.5452500000000000
  0.3333300000000000  0.6666700000000000  0.7880900000000000
  0.0000000000000000  0.0000000000000000  0.5000000000000000
  0.6666700000000000  0.3333300000000000  0.8333300000000000
  0.3333300000000000  0.6666700000000000  0.1666700000000000
  0.0000000000000000  0.0000000000000000  0.7259200000000000
  0.0000000000000000  0.0000000000000000  0.2740800000000000
  0.6666700000000000  0.3333300000000000  0.0592500000000000
  0.6666700000000000  0.3333300000000000  0.6074200000000000
  0.3333300000000000  0.6666700000000000  0.3925800000000000
  0.3333300000000000  0.6666700000000000  0.9407500000000000
