Zn Mn  S  C 
 1.0000000000000000
     3.3121000000000000    0.0000000000000000    0.0000000000000000
    -1.6560499999999991    2.8683627398744393    0.0000000000000000
     0.0000000000000000    0.0000000000000000    9.0113000000000003
 Zn  Mn  S   C  
   2   2   2   1
Direct
  0.6667000000000001  0.3333500000000000  0.5907900000000000
  0.3333000000000001  0.6666500000000000  0.4092100000000000
  0.6666600000000003  0.3333300000000000  0.9126799999999999
  0.3333400000000000  0.6666700000000000  0.0873200000000000
  0.6666400000000001  0.3333200000000000  0.2438800000000000
  0.3333600000000001  0.6666800000000001  0.7561200000000000
  0.0000000000000000  0.0000000000000000  0.0000000000000000
