Au  S Bi 
 1.0000000000000000
     3.2709999999999999    0.0000000000000000    0.0000000000000000
    -1.6354999999999993    2.8327690957788989    0.0000000000000000
     0.0000000000000000    0.0000000000000000   25.4780000000000015
 Au  S   Bi 
   6   6   3
Direct
  0.9862600000000000  0.0137400000000000  0.5755900000000000
  0.0137400000000000  0.9862600000000000  0.4244100000000000
  0.7190500000000000  0.2809500000000000  0.9071599999999999
  0.7347200000000000  0.2652800000000000  0.7607699999999998
  0.2652800000000000  0.7347199999999999  0.2392299999999999
  0.2809499999999999  0.7190499999999997  0.0928400000000000
  0.0584799999999999  0.9415199999999998  0.8329699999999998
  0.9415199999999999  0.0584800000000000  0.1670300000000000
  0.6275200000000000  0.3724800000000000  0.1668499999999999
  0.6510799999999998  0.3489200000000000  0.5002200000000000
  0.3489200000000000  0.6510799999999999  0.4997800000000000
  0.3724799999999999  0.6275200000000000  0.8331499999999999
  0.0000000000000000  0.0000000000000000  0.0000000000000000
  0.7493599999999999  0.2506399999999999  0.3282700000000000
  0.2506399999999999  0.7493599999999999  0.6717299999999999
