Ir  S  C 
 1.0000000000000000
     3.2690000000000001    0.0000000000000000    0.0000000000000000
    -1.6344999999999992    2.8310370449713305    0.0000000000000000
     0.0000000000000000    0.0000000000000000    8.5470000000000006
 Ir  S   C  
   2   2   1
Direct
  0.6665300000000000  0.3332600000000000  0.8732300000000000
  0.3334699999999999  0.6667400000000000  0.1267700000000000
  0.6667299999999998  0.3333600000000000  0.2924300000000000
  0.3332700000000001  0.6666400000000001  0.7075700000000000
  0.0000000000000000  0.0000000000000000  0.0000000000000000
