Hg  S Al 
 1.0000000000000000
     3.2690000000000001    0.0000000000000000    0.0000000000000000
    -1.6344999999999994    2.8310370449713305    0.0000000000000000
     0.0000000000000000    0.0000000000000000    8.5470000000000006
 Hg  S   Al 
   2   2   1
Direct
  0.0000500000000000  0.5000200000000000  0.7562799999999998
  0.9999499999999998  0.4999800000000000  0.2437200000000000
  0.6396599999999998  0.3198300000000000  0.4999700000000000
  0.3603400000000000  0.6801700000000001  0.5000300000000000
  0.0000000000000000  0.0000000000000000  0.0000000000000000
