Ir  S  B 
 1.0000000000000000
     3.2709999999999999    0.0000000000000000    0.0000000000000000
    -1.6354999999999993    2.8327690957788989    0.0000000000000000
     0.0000000000000000    0.0000000000000000   25.4780000000000015
 Ir  S   B  
   6   6   3
Direct
  0.9920200000000000  0.0079800000000000  0.6101100000000000
  0.0079800000000000  0.9920200000000000  0.3898900000000000
  0.7211600000000000  0.2788399999999999  0.9574400000000000
  0.7920500000000000  0.2079500000000000  0.7021200000000000
  0.2079499999999999  0.7920499999999998  0.2978800000000000
  0.2788400000000000  0.7211600000000000  0.0425600000000000
  0.7582200000000000  0.2417799999999999  0.7858800000000000
  0.2417799999999999  0.7582199999999999  0.2141200000000000
  0.7655900000000000  0.2344100000000000  0.1000800000000000
  0.6696699999999999  0.3303300000000000  0.5625200000000000
  0.3303300000000000  0.6696700000000000  0.4374800000000000
  0.2344100000000000  0.7655900000000000  0.8999199999999998
  0.0000000000000000  0.0000000000000000  0.0000000000000000
  0.5413700000000001  0.4586300000000000  0.3181000000000000
  0.4586299999999999  0.5413699999999999  0.6818999999999998
