Ti Ru  S  N 
 1.0000000000000000
     3.3121000000000000    0.0000000000000000    0.0000000000000000
    -1.6560499999999994    2.8683627398744393    0.0000000000000000
     0.0000000000000000    0.0000000000000000    9.0113000000000003
 Ti  Ru  S   N  
   2   2   2   1
Direct
  0.6666600000000003  0.3333300000000000  0.6044400000000000
  0.3333400000000000  0.6666700000000000  0.3955600000000000
  0.6666400000000001  0.3333200000000000  0.8988200000000001
  0.3333600000000001  0.6666800000000001  0.1011800000000000
  0.6666800000000001  0.3333400000000000  0.2537900000000000
  0.3333200000000001  0.6666600000000000  0.7462100000000000
  0.0000000000000000  0.0000000000000000  0.0000000000000000
