Cr  V  C  S
 1.0000000000000000
     3.3029999999999999    0.0000000000000000    0.0000000000000000
    -1.6514999999999991    2.8604819087000011    0.0000000000000000
     0.0000000000000000    0.0000000000000000   25.8299999999999983
 Cr  V   C   S
   3   6   3   6
Direct
  0.0000000000000000  0.0000000000000000  0.0000000000000000
  0.6666700000000000  0.3333300000000000  0.3333300000000001
  0.3333300000000000  0.6666700000000000  0.6666700000000001
  0.0000000000000000  0.0000000000000000  0.8713500000000000
  0.0000000000000000  0.0000000000000000  0.1286500000000000
  0.6666700000000000  0.3333300000000000  0.2046900000000000
  0.6666700000000000  0.3333300000000000  0.4619800000000000
  0.3333300000000000  0.6666700000000000  0.5380200000000001
  0.3333300000000000  0.6666700000000000  0.7953100000000000
  0.0000000000000000  0.0000000000000000  0.5000000000000000
  0.6666700000000000  0.3333300000000000  0.8333300000000000
  0.3333300000000000  0.6666700000000000  0.1666700000000000
  0.0000000000000000  0.0000000000000000  0.7246400000000000
  0.0000000000000000  0.0000000000000000  0.2753600000000000
  0.6666700000000000  0.3333300000000000  0.0579800000000000
  0.6666600000000000  0.3333400000000000  0.6086900000000000
  0.3333400000000000  0.6666600000000000  0.3913100000000000
  0.3333300000000000  0.6666700000000000  0.9420200000000000
