Au Te  B 
 1.0000000000000000
     3.2690000000000001    0.0000000000000000    0.0000000000000000
    -1.6344999999999994    2.8310370449713305    0.0000000000000000
     0.0000000000000000    0.0000000000000000    8.5470000000000006
 Au  Te  B  
   2   2   1
Direct
  0.6666999999999997  0.3333500000000000  0.8571900000000000
  0.3333000000000000  0.6666500000000000  0.1428100000000000
  0.6666499999999999  0.3333300000000000  0.3659100000000000
  0.3333499999999999  0.6666700000000000  0.6340900000000000
  0.0000000000000000  0.0000000000000000  0.0000000000000000
