 W Al  S 
 1.0000000000000000
     3.3435999999999999    0.0000000000000000    0.0000000000000000
    -1.6717999999999993    2.8956425400936490    0.0000000000000000
     0.0000000000000000    0.0000000000000000   11.5808999999999997
 W   Al  S  
   4   2   2
Direct
  0.3399099999999999  0.6600899999999998  0.4164400000000000
  0.6600900000000000  0.3399100000000000  0.5835600000000000
  0.6600800000000000  0.3399199999999999  0.9164400000000000
  0.3399199999999999  0.6600799999999999  0.0835600000000000
  0.0000000000000000  0.0000000000000000  0.0000000000000000
  0.0000000000000000  0.0000000000000000  0.5000000000000000
  0.2229500000000000  0.7770500000000000  0.7499900000000002
  0.7770500000000000  0.2229500000000000  0.2500100000000000
