Os Se Sb 
 1.0000000000000000
     3.2709999999999999    0.0000000000000000    0.0000000000000000
    -1.6354999999999993    2.8327690957788989    0.0000000000000000
     0.0000000000000000    0.0000000000000000   25.4780000000000015
 Os  Se  Sb 
   6   6   3
Direct
  0.0000100000000000  0.9999899999999999  0.5952200000000000
  0.9999900000000000  0.0000100000000000  0.4047800000000000
  0.6666600000000000  0.3333400000000000  0.9285500000000000
  0.6666600000000000  0.3333400000000000  0.7381199999999999
  0.3333400000000000  0.6666600000000000  0.2618800000000000
  0.3333400000000000  0.6666600000000000  0.0714500000000000
  0.0000000000000000  0.0000000000000000  0.7846999999999997
  0.9999999999999997  0.9999999999999998  0.2153000000000000
  0.6666700000000000  0.3333300000000000  0.1180400000000000
  0.6666700000000000  0.3333300000000000  0.5486300000000000
  0.3333300000000000  0.6666700000000000  0.4513700000000000
  0.3333300000000000  0.6666700000000000  0.8819599999999999
  0.0000000000000000  0.0000000000000000  0.0000000000000000
  0.6666700000000000  0.3333300000000000  0.3333300000000000
  0.3333300000000000  0.6666700000000000  0.6666699999999999
