Na Ti  C Se
 1.0000000000000000
     3.3029999999999999    0.0000000000000000    0.0000000000000000
    -1.6514999999999991    2.8604819087000011    0.0000000000000000
     0.0000000000000000    0.0000000000000000   25.8299999999999983
 Na  Ti  C   Se
   3   6   3   6
Direct
  0.0000000000000000  0.0000000000000000  0.0000000000000000
  0.6666700000000000  0.3333300000000000  0.3333300000000001
  0.3333300000000000  0.6666700000000000  0.6666700000000001
  0.0000000000000000  0.0000000000000000  0.8735600000000000
  0.0000000000000000  0.0000000000000000  0.1264400000000000
  0.6666700000000000  0.3333300000000000  0.2068900000000000
  0.6666700000000000  0.3333300000000000  0.4597700000000000
  0.3333300000000000  0.6666700000000000  0.5402300000000000
  0.3333300000000000  0.6666700000000000  0.7931100000000000
  0.0000000000000000  0.0000000000000000  0.5000000000000000
  0.6666700000000000  0.3333300000000000  0.8333300000000000
  0.3333300000000000  0.6666700000000000  0.1666700000000000
  0.0000000000000000  0.0000000000000000  0.7325300000000000
  0.0000000000000000  0.0000000000000000  0.2674700000000000
  0.6666700000000000  0.3333300000000000  0.0658600000000000
  0.6666700000000000  0.3333300000000000  0.6008100000000000
  0.3333300000000000  0.6666700000000000  0.3991900000000000
  0.3333300000000000  0.6666700000000000  0.9341400000000000
