Sc  W  C Te
 1.0000000000000000
     3.3029999999999999    0.0000000000000000    0.0000000000000000
    -1.6514999999999993    2.8604819087000011    0.0000000000000000
     0.0000000000000000    0.0000000000000000   25.8299999999999983
 Sc  W   C   Te
   3   6   3   6
Direct
  0.0000000000000000  0.0000000000000000  0.0000000000000000
  0.6667100000000000  0.3332900000000000  0.3197000000000000
  0.3332900000000000  0.6667100000000000  0.6803000000000000
  0.0000000000000000  0.0000000000000000  0.8852200000000000
  0.0000000000000000  0.0000000000000000  0.1147800000000000
  0.6666700000000000  0.3333300000000000  0.1686300000000000
  0.6666600000000000  0.3333400000000000  0.4718500000000000
  0.3333400000000000  0.6666600000000000  0.5281500000000000
  0.3333300000000000  0.6666700000000000  0.8313700000000002
  0.0000000000000000  0.0000000000000000  0.5000000000000000
  0.6666600000000000  0.3333400000000000  0.8259000000000001
  0.3333400000000000  0.6666600000000000  0.1741000000000000
  0.9999699999999998  0.0000300000000000  0.7201300000000000
  0.0000300000000000  0.9999700000000000  0.2798700000000000
  0.6666700000000000  0.3333300000000000  0.0537300000000000
  0.6666800000000001  0.3333200000000000  0.5952400000000000
  0.3333200000000000  0.6666800000000001  0.4047600000000000
  0.3333300000000000  0.6666700000000000  0.9462699999999999
