Sc  C  S
 1.0000000000000000
     3.3029999999999999    0.0000000000000000    0.0000000000000000
    -1.6514999999999991    2.8604819087000011    0.0000000000000000
     0.0000000000000000    0.0000000000000000   25.8299999999999983
 Sc  C   S
   9   3   6
Direct
  0.0000000000000000  0.0000000000000000  0.0000000000000000
  0.6666700000000000  0.3333300000000000  0.3333300000000001
  0.3333300000000000  0.6666700000000000  0.6666700000000001
  0.0000000000000000  0.0000000000000000  0.8774700000000000
  0.0000000000000000  0.0000000000000000  0.1225300000000000
  0.6666700000000000  0.3333300000000000  0.2108000000000000
  0.6666700000000000  0.3333300000000000  0.4558700000000000
  0.3333300000000000  0.6666700000000000  0.5441300000000000
  0.3333300000000000  0.6666700000000000  0.7892000000000000
  0.0000000000000000  0.0000000000000000  0.5000000000000000
  0.6666700000000000  0.3333300000000000  0.8333300000000000
  0.3333300000000000  0.6666700000000000  0.1666700000000000
  0.0000000000000000  0.0000000000000000  0.7257600000000000
  0.0000000000000000  0.0000000000000000  0.2742400000000000
  0.6666700000000000  0.3333300000000000  0.0590900000000000
  0.6666700000000000  0.3333300000000000  0.6075700000000001
  0.3333300000000000  0.6666700000000000  0.3924300000000000
  0.3333300000000000  0.6666700000000000  0.9409100000000001
