Zn  Y  C  S
 1.0000000000000000
     3.3029999999999999    0.0000000000000000    0.0000000000000000
    -1.6514999999999991    2.8604819087000011    0.0000000000000000
     0.0000000000000000    0.0000000000000000   25.8299999999999983
 Zn  Y   C   S
   3   6   3   6
Direct
  0.0000000000000000  0.0000000000000000  0.0000000000000000
  0.6666700000000000  0.3333300000000000  0.3333300000000001
  0.3333300000000000  0.6666700000000000  0.6666700000000001
  0.0000000000000000  0.0000000000000000  0.8835400000000000
  0.0000000000000000  0.0000000000000000  0.1164600000000000
  0.6666700000000000  0.3333300000000000  0.2168700000000000
  0.6666700000000000  0.3333300000000000  0.4497900000000001
  0.3333300000000000  0.6666700000000000  0.5502100000000000
  0.3333300000000000  0.6666700000000000  0.7831300000000002
  0.0000000000000000  0.0000000000000000  0.5000000000000000
  0.6666700000000000  0.3333300000000000  0.8333300000000000
  0.3333300000000000  0.6666700000000000  0.1666700000000000
  0.0000000000000000  0.0000000000000000  0.7165300000000000
  0.0000000000000000  0.0000000000000000  0.2834700000000000
  0.6666700000000000  0.3333300000000000  0.0498700000000000
  0.6666700000000000  0.3333300000000000  0.6168000000000000
  0.3333300000000000  0.6666700000000000  0.3832000000000000
  0.3333300000000000  0.6666700000000000  0.9501300000000003
