 V Ti  C Te
 1.0000000000000000
     3.3029999999999999    0.0000000000000000    0.0000000000000000
    -1.6514999999999993    2.8604819087000011    0.0000000000000000
     0.0000000000000000    0.0000000000000000   25.8299999999999983
 V   Ti  C   Te
   3   6   3   6
Direct
  0.0000000000000000  0.0000000000000000  0.0000000000000000
  0.6666199999999999  0.3333800000000000  0.3303400000000000
  0.3333800000000000  0.6666200000000000  0.6696600000000000
  0.8495400000000000  0.1504600000000000  0.8605100000000000
  0.1504600000000000  0.8495400000000000  0.1394900000000000
  0.8122900000000000  0.1877100000000000  0.1856100000000000
  0.6686900000000000  0.3313100000000000  0.4768300000000000
  0.3313100000000000  0.6686900000000000  0.5231700000000000
  0.1877100000000000  0.8122900000000001  0.8143899999999999
  0.0000000000000000  0.0000000000000000  0.5000000000000000
  0.5225600000000000  0.4774400000000000  0.8368100000000003
  0.4774400000000000  0.5225600000000000  0.1631900000000000
  0.0176100000000000  0.9823900000000000  0.7188500000000000
  0.9823900000000000  0.0176100000000000  0.2811500000000000
  0.6714200000000000  0.3285800000000000  0.0604000000000000
  0.7929099999999999  0.2070900000000000  0.6059000000000000
  0.2070900000000000  0.7929100000000000  0.3941000000000001
  0.3285800000000000  0.6714200000000000  0.9396000000000000
