Pt  S  B 
 1.0000000000000000
     3.2690000000000001    0.0000000000000000    0.0000000000000000
    -1.6344999999999994    2.8310370449713305    0.0000000000000000
     0.0000000000000000    0.0000000000000000    8.5470000000000006
 Pt  S   B  
   2   2   1
Direct
  0.6666899999999998  0.3333400000000000  0.8724400000000000
  0.3333100000000000  0.6666600000000000  0.1275600000000000
  0.6666299999999999  0.3333100000000000  0.3199800000000000
  0.3333700000000001  0.6666900000000001  0.6800200000000000
  0.0000000000000000  0.0000000000000000  0.0000000000000000
