Ag  C Se
 1.0000000000000000
     3.3029999999999999    0.0000000000000000    0.0000000000000000
    -1.6514999999999993    2.8604819087000011    0.0000000000000000
     0.0000000000000000    0.0000000000000000   25.8299999999999983
 Ag  C   Se
   9   3   6
Direct
  0.0000000000000000  0.0000000000000000  0.0000000000000000
  0.6666700000000000  0.3333300000000000  0.3333300000000001
  0.3333300000000000  0.6666700000000000  0.6666700000000001
  0.0000000000000000  0.0000000000000000  0.8771400000000000
  0.0000000000000000  0.0000000000000000  0.1228600000000000
  0.6666700000000000  0.3333300000000000  0.2104700000000000
  0.6666700000000000  0.3333300000000000  0.4562000000000000
  0.3333300000000000  0.6666700000000000  0.5438000000000000
  0.3333300000000000  0.6666700000000000  0.7895300000000000
  0.0000000000000000  0.0000000000000000  0.5000000000000000
  0.6666700000000000  0.3333300000000000  0.8333300000000000
  0.3333300000000000  0.6666700000000000  0.1666700000000000
  0.0000000000000000  0.0000000000000000  0.7290400000000000
  0.0000000000000000  0.0000000000000000  0.2709600000000000
  0.6666700000000000  0.3333300000000000  0.0623800000000000
  0.6666700000000000  0.3333300000000000  0.6042900000000000
  0.3333300000000000  0.6666700000000000  0.3957100000000000
  0.3333300000000000  0.6666700000000000  0.9376200000000000
