Sc Cu  C  S
 1.0000000000000000
     3.3029999999999999    0.0000000000000000    0.0000000000000000
    -1.6514999999999991    2.8604819087000011    0.0000000000000000
     0.0000000000000000    0.0000000000000000   25.8299999999999983
 Sc  Cu  C   S
   3   6   3   6
Direct
  0.0000000000000000  0.0000000000000000  0.0000000000000000
  0.6666700000000000  0.3333300000000000  0.3333300000000001
  0.3333300000000000  0.6666700000000000  0.6666700000000001
  0.0000000000000000  0.0000000000000000  0.8710599999999999
  0.0000000000000000  0.0000000000000000  0.1289400000000000
  0.6666700000000000  0.3333300000000000  0.2044000000000000
  0.6666700000000000  0.3333300000000000  0.4622700000000000
  0.3333300000000000  0.6666700000000000  0.5377300000000000
  0.3333300000000000  0.6666700000000000  0.7956000000000001
  0.0000000000000000  0.0000000000000000  0.5000000000000000
  0.6666700000000000  0.3333300000000000  0.8333300000000000
  0.3333300000000000  0.6666700000000000  0.1666700000000000
  0.0000000000000000  0.0000000000000000  0.7295199999999999
  0.0000000000000000  0.0000000000000000  0.2704800000000000
  0.6666700000000000  0.3333300000000000  0.0628500000000000
  0.6666700000000000  0.3333300000000000  0.6038200000000000
  0.3333300000000000  0.6666700000000000  0.3961800000000000
  0.3333300000000000  0.6666700000000000  0.9371500000000000
