Fe Pd  C Te
 1.0000000000000000
     3.3029999999999999    0.0000000000000000    0.0000000000000000
    -1.6514999999999993    2.8604819087000011    0.0000000000000000
     0.0000000000000000    0.0000000000000000   25.8299999999999983
 Fe  Pd  C   Te
   3   6   3   6
Direct
  0.0000000000000000  0.0000000000000000  0.0000000000000000
  0.6666700000000000  0.3333300000000000  0.3333300000000001
  0.3333300000000000  0.6666700000000000  0.6666700000000001
  0.0000000000000000  0.0000000000000000  0.8749100000000000
  0.0000000000000000  0.0000000000000000  0.1250900000000000
  0.6666700000000000  0.3333300000000000  0.2082400000000000
  0.6666700000000000  0.3333300000000000  0.4584300000000001
  0.3333300000000000  0.6666700000000000  0.5415700000000000
  0.3333300000000000  0.6666700000000000  0.7917600000000001
  0.0000000000000000  0.0000000000000000  0.5000000000000000
  0.6666700000000000  0.3333300000000000  0.8333300000000000
  0.3333300000000000  0.6666700000000000  0.1666700000000000
  0.0000000000000000  0.0000000000000000  0.7237600000000001
  0.0000000000000000  0.0000000000000000  0.2762400000000000
  0.6666700000000000  0.3333300000000000  0.0570900000000000
  0.6666600000000000  0.3333400000000000  0.6095800000000000
  0.3333400000000000  0.6666600000000000  0.3904200000000000
  0.3333300000000000  0.6666700000000000  0.9429100000000000
