Fe Pd  C  S
 1.0000000000000000
     3.3029999999999999    0.0000000000000000    0.0000000000000000
    -1.6514999999999991    2.8604819087000011    0.0000000000000000
     0.0000000000000000    0.0000000000000000   25.8299999999999983
 Fe  Pd  C   S
   3   6   3   6
Direct
  0.0000000000000000  0.0000000000000000  0.0000000000000000
  0.6666700000000000  0.3333300000000000  0.3333300000000001
  0.3333300000000000  0.6666700000000000  0.6666700000000001
  0.0000000000000000  0.0000000000000000  0.8738300000000000
  0.0000000000000000  0.0000000000000000  0.1261700000000000
  0.6666700000000000  0.3333300000000000  0.2071600000000000
  0.6666700000000000  0.3333300000000000  0.4595000000000001
  0.3333300000000000  0.6666700000000000  0.5405000000000000
  0.3333300000000000  0.6666700000000000  0.7928400000000001
  0.0000000000000000  0.0000000000000000  0.5000000000000000
  0.6666700000000000  0.3333300000000000  0.8333300000000000
  0.3333300000000000  0.6666700000000000  0.1666700000000000
  0.0000100000000001  0.9999900000000002  0.7136400000000002
  0.9999899999999998  0.0000100000000000  0.2863600000000000
  0.6666800000000001  0.3333200000000000  0.0469700000000000
  0.6666499999999999  0.3333500000000000  0.6196900000000000
  0.3333499999999999  0.6666500000000000  0.3803100000000000
  0.3333200000000000  0.6666800000000001  0.9530300000000000
