Na Zr  C Se
 1.0000000000000000
     3.3029999999999999    0.0000000000000000    0.0000000000000000
    -1.6514999999999993    2.8604819087000011    0.0000000000000000
     0.0000000000000000    0.0000000000000000   25.8299999999999983
 Na  Zr  C   Se
   3   6   3   6
Direct
  0.0000000000000000  0.0000000000000000  0.0000000000000000
  0.8371399999999999  0.1628600000000000  0.3296300000000000
  0.1628600000000000  0.8371400000000000  0.6703700000000000
  0.8229600000000000  0.1770400000000000  0.8593499999999999
  0.1770400000000000  0.8229599999999999  0.1406500000000000
  0.8486200000000000  0.1513800000000000  0.1988400000000000
  0.6737399999999999  0.3262600000000000  0.4723600000000000
  0.3262600000000000  0.6737400000000000  0.5276400000000000
  0.1513799999999999  0.8486200000000000  0.8011600000000000
  0.0000000000000000  0.0000000000000000  0.5000000000000000
  0.4931900000000000  0.5068100000000000  0.8445900000000000
  0.5068100000000000  0.4931900000000001  0.1554100000000000
  0.8322500000000000  0.1677500000000000  0.7478300000000000
  0.1677500000000001  0.8322500000000000  0.2521700000000000
  0.6767999999999998  0.3232000000000000  0.0746700000000000
  0.8350799999999999  0.1649200000000000  0.5977800000000000
  0.1649199999999999  0.8350800000000000  0.4022200000000000
  0.3231999999999999  0.6768000000000000  0.9253300000000001
