Cd Se Pb 
 1.0000000000000000
     3.2690000000000001    0.0000000000000000    0.0000000000000000
    -1.6344999999999994    2.8310370449713305    0.0000000000000000
     0.0000000000000000    0.0000000000000000    8.5470000000000006
 Cd  Se  Pb 
   2   2   1
Direct
  0.7264499999999998  0.3632300000000000  0.7404300000000000
  0.2735500000000000  0.6367699999999999  0.2595700000000000
  0.6189399999999998  0.3094700000000001  0.4467600000000000
  0.3810600000000000  0.6905300000000001  0.5532400000000000
  0.0000000000000000  0.0000000000000000  0.0000000000000000
