Co  S  N 
 1.0000000000000000
     3.2709999999999999    0.0000000000000000    0.0000000000000000
    -1.6354999999999991    2.8327690957788989    0.0000000000000000
     0.0000000000000000    0.0000000000000000   25.4780000000000015
 Co  S   N  
   6   6   3
Direct
  0.0000199999999999  0.9999799999999998  0.6272799999999999
  0.9999800000000000  0.0000200000000000  0.3727200000000000
  0.6666800000000001  0.3333199999999999  0.9606100000000000
  0.6666700000000000  0.3333300000000000  0.7060500000000000
  0.3333300000000000  0.6666700000000000  0.2939500000000000
  0.3333199999999999  0.6666800000000001  0.0393900000000000
  0.9999800000000000  0.0000200000000000  0.7531300000000000
  0.0000199999999999  0.9999799999999998  0.2468700000000000
  0.6666399999999999  0.3333600000000000  0.0864700000000000
  0.6666900000000000  0.3333099999999999  0.5802000000000000
  0.3333100000000000  0.6666900000000000  0.4198000000000000
  0.3333599999999999  0.6666399999999999  0.9135300000000000
  0.0000000000000000  0.0000000000000000  0.0000000000000000
  0.6666900000000000  0.3333099999999999  0.3333300000000000
  0.3333100000000000  0.6666900000000000  0.6666699999999999
