Sc Au  C  S
 1.0000000000000000
     3.3029999999999999    0.0000000000000000    0.0000000000000000
    -1.6514999999999991    2.8604819087000011    0.0000000000000000
     0.0000000000000000    0.0000000000000000   25.8299999999999983
 Sc  Au  C   S
   3   6   3   6
Direct
  0.0000000000000000  0.0000000000000000  0.0000000000000000
  0.6666700000000000  0.3333300000000000  0.3333300000000001
  0.3333300000000000  0.6666700000000000  0.6666700000000001
  0.0000000000000000  0.0000000000000000  0.8798500000000000
  0.0000000000000000  0.0000000000000000  0.1201500000000000
  0.6666700000000000  0.3333300000000000  0.2131800000000000
  0.6666700000000000  0.3333300000000000  0.4534900000000001
  0.3333300000000000  0.6666700000000000  0.5465100000000001
  0.3333300000000000  0.6666700000000000  0.7868200000000000
  0.0000000000000000  0.0000000000000000  0.5000000000000000
  0.6666700000000000  0.3333300000000000  0.8333300000000000
  0.3333300000000000  0.6666700000000000  0.1666700000000000
  0.0000000000000000  0.0000000000000000  0.7235100000000000
  0.0000000000000000  0.0000000000000000  0.2764900000000000
  0.6666700000000000  0.3333300000000000  0.0568400000000000
  0.6666700000000000  0.3333300000000000  0.6098300000000000
  0.3333300000000000  0.6666700000000000  0.3901700000000000
  0.3333300000000000  0.6666700000000000  0.9431600000000000
