Au Se Ga 
 1.0000000000000000
     3.2690000000000001    0.0000000000000000    0.0000000000000000
    -1.6344999999999994    2.8310370449713305    0.0000000000000000
     0.0000000000000000    0.0000000000000000    8.5470000000000006
 Au  Se  Ga 
   2   2   1
Direct
  0.6664699999999998  0.3332400000000000  0.7874500000000000
  0.3335300000000000  0.6667600000000000  0.2125500000000000
  0.6221300000000000  0.3110600000000000  0.4365400000000000
  0.3778700000000000  0.6889400000000000  0.5634600000000000
  0.0000000000000000  0.0000000000000000  0.0000000000000000
