Zn Te  B 
 1.0000000000000000
     3.2709999999999999    0.0000000000000000    0.0000000000000000
    -1.6354999999999993    2.8327690957788989    0.0000000000000000
     0.0000000000000000    0.0000000000000000   25.4780000000000015
 Zn  Te  B  
   6   6   3
Direct
  0.0114800000000000  0.9885200000000000  0.6222400000000000
  0.9885200000000000  0.0114800000000000  0.3777599999999999
  0.7239099999999999  0.2760900000000000  0.9538100000000000
  0.7784700000000000  0.2215300000000000  0.7119200000000000
  0.2215299999999999  0.7784699999999999  0.2880800000000000
  0.2760900000000000  0.7239100000000001  0.0461900000000000
  0.2753199999999999  0.7246799999999998  0.7800599999999998
  0.7246799999999999  0.2753200000000000  0.2199400000000000
  0.5587600000000000  0.4412400000000000  0.1191600000000000
  0.7396000000000000  0.2604000000000000  0.5444900000000000
  0.2603999999999999  0.7395999999999998  0.4555100000000000
  0.4412400000000000  0.5587600000000000  0.8808400000000000
  0.0000000000000000  0.0000000000000000  0.0000000000000000
  0.7107500000000000  0.2892500000000000  0.3280500000000000
  0.2892500000000000  0.7107500000000000  0.6719500000000000
