Ti Ag  C Se
 1.0000000000000000
     3.3029999999999999    0.0000000000000000    0.0000000000000000
    -1.6514999999999993    2.8604819087000011    0.0000000000000000
     0.0000000000000000    0.0000000000000000   25.8299999999999983
 Ti  Ag  C   Se
   3   6   3   6
Direct
  0.0000000000000000  0.0000000000000000  0.0000000000000000
  0.8377400000000000  0.1622600000000000  0.3164900000000000
  0.1622599999999999  0.8377400000000002  0.6835100000000000
  0.0101100000000000  0.9898900000000000  0.8876900000000000
  0.9898899999999999  0.0101100000000000  0.1123100000000000
  0.7753700000000000  0.2246300000000000  0.2170700000000000
  0.6774100000000000  0.3225900000000000  0.4505900000000000
  0.3225899999999999  0.6774100000000000  0.5494100000000000
  0.2246299999999999  0.7753700000000000  0.7829300000000001
  0.0000000000000000  0.0000000000000000  0.5000000000000000
  0.7002899999999997  0.2997100000000000  0.8393699999999999
  0.2997100000000000  0.7002900000000000  0.1606300000000000
  0.8380400000000000  0.1619600000000000  0.7111200000000001
  0.1619600000000000  0.8380400000000001  0.2888800000000000
  0.6682700000000000  0.3317300000000000  0.0468400000000000
  0.6404000000000000  0.3596000000000000  0.6182600000000000
  0.3596000000000000  0.6404000000000000  0.3817400000000000
  0.3317300000000000  0.6682700000000000  0.9531600000000000
