Nb  S  N 
 1.0000000000000000
     3.2690000000000001    0.0000000000000000    0.0000000000000000
    -1.6344999999999994    2.8310370449713305    0.0000000000000000
     0.0000000000000000    0.0000000000000000    8.5470000000000006
 Nb  S   N  
   2   2   1
Direct
  0.6666599999999998  0.3333300000000000  0.9063300000000000
  0.3333399999999999  0.6666700000000000  0.0936700000000000
  0.6665200000000000  0.3332600000000000  0.2306900000000000
  0.3334799999999999  0.6667400000000000  0.7693100000000000
  0.0000000000000000  0.0000000000000000  0.0000000000000000
