Zn Hf  C Se
 1.0000000000000000
     3.3029999999999999    0.0000000000000000    0.0000000000000000
    -1.6514999999999993    2.8604819087000011    0.0000000000000000
     0.0000000000000000    0.0000000000000000   25.8299999999999983
 Zn  Hf  C   Se
   3   6   3   6
Direct
  0.0000000000000000  0.0000000000000000  0.0000000000000000
  0.4434100000000000  0.5565900000000000  0.3303900000000001
  0.5565899999999998  0.4434100000000000  0.6696100000000001
  0.9227199999999999  0.0772800000000000  0.8582100000000000
  0.0772800000000000  0.9227200000000000  0.1417900000000000
  0.7649600000000000  0.2350400000000000  0.2007400000000000
  0.6755400000000000  0.3244600000000000  0.4725000000000000
  0.3244600000000000  0.6755400000000000  0.5275000000000000
  0.2350400000000001  0.7649600000000000  0.7992600000000000
  0.0000000000000000  0.0000000000000000  0.5000000000000000
  0.5927300000000000  0.4072700000000001  0.8585100000000000
  0.4072700000000000  0.5927300000000000  0.1414900000000000
  0.9183800000000000  0.0816200000000000  0.7586100000000000
  0.0816200000000000  0.9183800000000001  0.2413900000000000
  0.5970700000000001  0.4029300000000000  0.0845700000000000
  0.8360300000000001  0.1639700000000000  0.5918900000000000
  0.1639700000000001  0.8360300000000001  0.4081100000000000
  0.4029299999999999  0.5970700000000000  0.9154300000000001
