Ti Au  C Se
 1.0000000000000000
     3.3029999999999999    0.0000000000000000    0.0000000000000000
    -1.6514999999999993    2.8604819087000011    0.0000000000000000
     0.0000000000000000    0.0000000000000000   25.8299999999999983
 Ti  Au  C   Se
   3   6   3   6
Direct
  0.0000000000000000  0.0000000000000000  0.0000000000000000
  0.8636700000000000  0.1363300000000000  0.3158900000000000
  0.1363300000000000  0.8636700000000000  0.6841100000000000
  0.0138300000000001  0.9861700000000001  0.8902500000000000
  0.9861699999999998  0.0138300000000000  0.1097500000000000
  0.7673200000000000  0.2326800000000000  0.2158300000000000
  0.6919100000000000  0.3080900000000000  0.4496900000000000
  0.3080899999999999  0.6919100000000000  0.5503100000000000
  0.2326799999999999  0.7673200000000000  0.7841700000000003
  0.0000000000000000  0.0000000000000000  0.5000000000000000
  0.7127599999999999  0.2872400000000000  0.8412400000000000
  0.2872399999999999  0.7127600000000001  0.1587600000000000
  0.8126000000000000  0.1874000000000000  0.7117100000000000
  0.1874000000000000  0.8126000000000001  0.2882900000000000
  0.6690400000000000  0.3309600000000000  0.0452000000000000
  0.6143500000000000  0.3856500000000000  0.6189800000000000
  0.3856500000000000  0.6143500000000000  0.3810200000000000
  0.3309600000000000  0.6690400000000000  0.9548000000000001
