Sc Hg Se  N 
 1.0000000000000000
     3.3121000000000000    0.0000000000000000    0.0000000000000000
    -1.6560499999999994    2.8683627398744393    0.0000000000000000
     0.0000000000000000    0.0000000000000000    9.0113000000000003
 Sc  Hg  Se  N  
   2   2   2   1
Direct
  0.6666400000000001  0.3333200000000000  0.5750900000000000
  0.3333600000000001  0.6666800000000001  0.4249100000000000
  0.6666600000000003  0.3333300000000000  0.8873100000000000
  0.3333400000000000  0.6666700000000000  0.1126900000000000
  0.6666900000000002  0.3333400000000000  0.2864200000000000
  0.3333100000000000  0.6666600000000000  0.7135800000000000
  0.0000000000000000  0.0000000000000000  0.0000000000000000
