Co Hg  C Te
 1.0000000000000000
     3.3029999999999999    0.0000000000000000    0.0000000000000000
    -1.6514999999999993    2.8604819087000011    0.0000000000000000
     0.0000000000000000    0.0000000000000000   25.8299999999999983
 Co  Hg  C   Te
   3   6   3   6
Direct
  0.0000000000000000  0.0000000000000000  0.0000000000000000
  0.6666700000000000  0.3333300000000000  0.3333300000000001
  0.3333300000000000  0.6666700000000000  0.6666700000000001
  0.0000000000000000  0.0000000000000000  0.8788600000000000
  0.0000000000000000  0.0000000000000000  0.1211400000000000
  0.6666700000000000  0.3333300000000000  0.2121900000000000
  0.6666700000000000  0.3333300000000000  0.4544700000000000
  0.3333300000000000  0.6666700000000000  0.5455300000000000
  0.3333300000000000  0.6666700000000000  0.7878100000000000
  0.0000000000000000  0.0000000000000000  0.5000000000000000
  0.6666700000000000  0.3333300000000000  0.8333300000000000
  0.3333300000000000  0.6666700000000000  0.1666700000000000
  0.0000000000000000  0.0000000000000000  0.7188400000000000
  0.0000000000000000  0.0000000000000000  0.2811600000000000
  0.6666700000000000  0.3333300000000000  0.0521700000000000
  0.6666700000000000  0.3333300000000000  0.6145000000000000
  0.3333300000000000  0.6666700000000000  0.3855000000000000
  0.3333300000000000  0.6666700000000000  0.9478300000000000
