Ni  S  P 
 1.0000000000000000
     3.2690000000000001    0.0000000000000000    0.0000000000000000
    -1.6344999999999994    2.8310370449713305    0.0000000000000000
     0.0000000000000000    0.0000000000000000    8.5470000000000006
 Ni  S   P  
   2   2   1
Direct
  0.6333299999999999  0.3166600000000000  0.8497100000000000
  0.3666699999999999  0.6833400000000001  0.1502900000000000
  0.7695000000000000  0.3847500000000001  0.3350900000000000
  0.2305000000000000  0.6152500000000000  0.6649100000000000
  0.0000000000000000  0.0000000000000000  0.0000000000000000
