Cu  C  S
 1.0000000000000000
     3.3029999999999999    0.0000000000000000    0.0000000000000000
    -1.6514999999999991    2.8604819087000011    0.0000000000000000
     0.0000000000000000    0.0000000000000000   25.8299999999999983
 Cu  C   S
   9   3   6
Direct
  0.0000000000000000  0.0000000000000000  0.0000000000000000
  0.6666700000000000  0.3333300000000000  0.3333400000000001
  0.3333300000000000  0.6666700000000000  0.6666600000000001
  0.0000000000000000  0.0000000000000000  0.8724500000000002
  0.0000000000000000  0.0000000000000000  0.1275500000000000
  0.6666700000000000  0.3333300000000000  0.2058100000000000
  0.6666700000000000  0.3333300000000000  0.4608700000000001
  0.3333300000000000  0.6666700000000000  0.5391300000000000
  0.3333300000000000  0.6666700000000000  0.7941900000000000
  0.0000000000000000  0.0000000000000000  0.5000000000000000
  0.6666700000000000  0.3333300000000000  0.8333199999999999
  0.3333300000000000  0.6666700000000000  0.1666800000000000
  0.0000000000000000  0.0000000000000000  0.7262800000000001
  0.0000000000000000  0.0000000000000000  0.2737200000000000
  0.6666700000000000  0.3333300000000000  0.0596300000000000
  0.6666700000000000  0.3333300000000000  0.6070400000000000
  0.3333300000000000  0.6666700000000000  0.3929600000000000
  0.3333300000000000  0.6666700000000000  0.9403700000000000
