Fe Ti  N Se 
 1.0000000000000000
     3.3029999999999999    0.0000000000000000    0.0000000000000000
    -1.6514999999999991    2.8604819087000011    0.0000000000000000
     0.0000000000000000    0.0000000000000000   25.8299999999999983
 Fe  Ti  N   Se 
   3   6   3   6
Direct
  0.0000000000000000  0.0000000000000000  0.0000000000000000
  0.6666400000000000  0.3333600000000000  0.3333300000000001
  0.3333600000000000  0.6666400000000000  0.6666700000000001
  0.0000000000000000  0.0000000000000000  0.8578000000000000
  0.0000000000000000  0.0000000000000000  0.1422000000000000
  0.6666700000000000  0.3333300000000000  0.1910500000000000
  0.6666700000000000  0.3333300000000000  0.4755700000000000
  0.3333300000000000  0.6666700000000000  0.5244300000000000
  0.3333300000000000  0.6666700000000000  0.8089499999999999
  0.0000000000000000  0.0000000000000000  0.5000000000000000
  0.6666600000000000  0.3333400000000000  0.8333900000000000
  0.3333400000000000  0.6666600000000000  0.1666100000000000
  0.0000200000000001  0.9999800000000001  0.7163800000000001
  0.9999800000000000  0.0000200000000000  0.2836200000000000
  0.6666900000000000  0.3333100000000000  0.0497100000000000
  0.6666299999999999  0.3333700000000000  0.6169400000000000
  0.3333700000000000  0.6666299999999999  0.3830600000000000
  0.3333099999999999  0.6666900000000000  0.9502900000000000
