 V Pt  C  S
 1.0000000000000000
     3.3029999999999999    0.0000000000000000    0.0000000000000000
    -1.6514999999999991    2.8604819087000011    0.0000000000000000
     0.0000000000000000    0.0000000000000000   25.8299999999999983
 V   Pt  C   S
   3   6   3   6
Direct
  0.0000000000000000  0.0000000000000000  0.0000000000000000
  0.6666700000000000  0.3333300000000000  0.3333300000000001
  0.3333300000000000  0.6666700000000000  0.6666700000000001
  0.0000000000000000  0.0000000000000000  0.8772300000000000
  0.0000000000000000  0.0000000000000000  0.1227700000000000
  0.6666700000000000  0.3333300000000000  0.2105600000000000
  0.6666700000000000  0.3333300000000000  0.4561000000000000
  0.3333300000000000  0.6666700000000000  0.5439000000000001
  0.3333300000000000  0.6666700000000000  0.7894400000000001
  0.0000000000000000  0.0000000000000000  0.5000000000000000
  0.6666700000000000  0.3333300000000000  0.8333300000000000
  0.3333300000000000  0.6666700000000000  0.1666700000000000
  0.0000000000000000  0.0000000000000000  0.7214800000000000
  0.0000000000000000  0.0000000000000000  0.2785200000000000
  0.6666700000000000  0.3333300000000000  0.0548100000000000
  0.6666700000000000  0.3333300000000000  0.6118600000000000
  0.3333300000000000  0.6666700000000000  0.3881400000000000
  0.3333300000000000  0.6666700000000000  0.9451900000000000
