Li  Y  N  S 
 1.0000000000000000
     3.3029999999999999    0.0000000000000000    0.0000000000000000
    -1.6514999999999991    2.8604819087000011    0.0000000000000000
     0.0000000000000000    0.0000000000000000   25.8299999999999983
 Li  Y   N   S  
   3   6   3   6
Direct
  0.0000000000000000  0.0000000000000000  0.0000000000000000
  0.7137200000000000  0.2862800000000000  0.3523600000000000
  0.2862800000000000  0.7137200000000000  0.6476400000000000
  0.9445799999999998  0.0554200000000000  0.8568100000000000
  0.0554200000000001  0.9445800000000001  0.1431900000000000
  0.6802100000000000  0.3197900000000000  0.2409800000000000
  0.6744199999999998  0.3255800000000000  0.4683700000000000
  0.3255800000000000  0.6744200000000000  0.5316300000000000
  0.3197900000000000  0.6802100000000000  0.7590200000000000
  0.0000000000000000  0.0000000000000000  0.5000000000000000
  0.6124100000000000  0.3875900000000000  0.8383700000000001
  0.3875900000000000  0.6124100000000000  0.1616300000000000
  0.9840699999999998  0.0159300000000000  0.7279900000000000
  0.0159300000000000  0.9840700000000000  0.2720100000000000
  0.5625000000000000  0.4375000000000000  0.0651700000000000
  0.7427700000000000  0.2572300000000000  0.5965700000000000
  0.2572300000000000  0.7427700000000000  0.4034300000000000
  0.4374999999999999  0.5625000000000000  0.9348300000000000
