Mg Au  C Te
 1.0000000000000000
     3.3029999999999999    0.0000000000000000    0.0000000000000000
    -1.6514999999999993    2.8604819087000011    0.0000000000000000
     0.0000000000000000    0.0000000000000000   25.8299999999999983
 Mg  Au  C   Te
   3   6   3   6
Direct
  0.0000000000000000  0.0000000000000000  0.0000000000000000
  0.6666700000000000  0.3333300000000000  0.3333300000000001
  0.3333300000000000  0.6666700000000000  0.6666700000000001
  0.0000000000000000  0.0000000000000000  0.8772500000000000
  0.0000000000000000  0.0000000000000000  0.1227500000000000
  0.6666700000000000  0.3333300000000000  0.2105900000000000
  0.6666700000000000  0.3333300000000000  0.4560800000000000
  0.3333300000000000  0.6666700000000000  0.5439200000000000
  0.3333300000000000  0.6666700000000000  0.7894099999999999
  0.0000000000000000  0.0000000000000000  0.5000000000000000
  0.6666700000000000  0.3333300000000000  0.8333300000000000
  0.3333300000000000  0.6666700000000000  0.1666700000000000
  0.0000000000000000  0.0000000000000000  0.7238200000000000
  0.0000000000000000  0.0000000000000000  0.2761800000000000
  0.6666700000000000  0.3333300000000000  0.0571600000000000
  0.6666700000000000  0.3333300000000000  0.6095100000000000
  0.3333300000000000  0.6666700000000000  0.3904900000000000
  0.3333300000000000  0.6666700000000000  0.9428400000000000
