Au Se Ge 
 1.0000000000000000
     3.2709999999999999    0.0000000000000000    0.0000000000000000
    -1.6354999999999993    2.8327690957788989    0.0000000000000000
     0.0000000000000000    0.0000000000000000   25.4780000000000015
 Au  Se  Ge 
   6   6   3
Direct
  0.9829999999999998  0.0170000000000000  0.5973600000000000
  0.0170000000000000  0.9830000000000000  0.4026399999999999
  0.6546100000000000  0.3453899999999999  0.9311500000000000
  0.6479100000000000  0.3520900000000000  0.7369300000000000
  0.3520900000000000  0.6479100000000000  0.2630700000000000
  0.3453900000000000  0.6546100000000000  0.0688500000000000
  0.0153000000000000  0.9847000000000000  0.8110100000000000
  0.9847000000000000  0.0153000000000000  0.1889900000000000
  0.6975499999999999  0.3024499999999999  0.1440700000000000
  0.6896300000000000  0.3103700000000000  0.5218500000000000
  0.3103699999999999  0.6896299999999999  0.4781500000000000
  0.3024499999999999  0.6975500000000000  0.8559300000000000
  0.0000000000000000  0.0000000000000000  0.0000000000000000
  0.7284000000000000  0.2716000000000000  0.3322600000000000
  0.2716000000000000  0.7284000000000000  0.6677400000000000
