Pt Te Pb 
 1.0000000000000000
     3.2690000000000001    0.0000000000000000    0.0000000000000000
    -1.6344999999999994    2.8310370449713305    0.0000000000000000
     0.0000000000000000    0.0000000000000000    8.5470000000000006
 Pt  Te  Pb 
   2   2   1
Direct
  0.6927099999999998  0.3463500000000000  0.7918400000000000
  0.3072900000000000  0.6536500000000001  0.2081600000000000
  0.6161699999999998  0.3080800000000000  0.4053200000000000
  0.3838300000000001  0.6919200000000001  0.5946800000000000
  0.0000000000000000  0.0000000000000000  0.0000000000000000
