Ag Hf  N  S 
 1.0000000000000000
     3.3029999999999999    0.0000000000000000    0.0000000000000000
    -1.6514999999999991    2.8604819087000011    0.0000000000000000
     0.0000000000000000    0.0000000000000000   25.8299999999999983
 Ag  Hf  N   S  
   3   6   3   6
Direct
  0.0000000000000000  0.0000000000000000  0.0000000000000000
  0.4122600000000000  0.5877400000000000  0.3266500000000000
  0.5877400000000000  0.4122600000000000  0.6733500000000000
  0.1064099999999999  0.8935899999999999  0.8613100000000000
  0.8935899999999999  0.1064100000000000  0.1386900000000000
  0.5940000000000000  0.4060000000000001  0.2157500000000000
  0.6706899999999998  0.3293100000000000  0.4688100000000000
  0.3293099999999999  0.6706900000000000  0.5311900000000001
  0.4060000000000000  0.5940000000000000  0.7842500000000000
  0.0000000000000000  0.0000000000000000  0.5000000000000000
  0.7847799999999998  0.2152200000000000  0.8438700000000000
  0.2152200000000001  0.7847800000000001  0.1561300000000000
  0.0890300000000000  0.9109699999999999  0.7508500000000000
  0.9109699999999998  0.0890300000000000  0.2491500000000000
  0.4181200000000000  0.5818800000000000  0.0743100000000000
  0.7296799999999998  0.2703200000000000  0.5866200000000000
  0.2703199999999999  0.7296800000000001  0.4133800000000000
  0.5818800000000000  0.4181200000000000  0.9256900000000000
