Ta Se Al 
 1.0000000000000000
     3.2690000000000001    0.0000000000000000    0.0000000000000000
    -1.6344999999999994    2.8310370449713305    0.0000000000000000
     0.0000000000000000    0.0000000000000000    8.5470000000000006
 Ta  Se  Al 
   2   2   1
Direct
  0.6662400000000001  0.3331200000000000  0.7421400000000000
  0.3337600000000000  0.6668800000000000  0.2578600000000000
  0.6671499999999999  0.3335700000000000  0.3568900000000000
  0.3328499999999999  0.6664300000000000  0.6431100000000000
  0.0000000000000000  0.0000000000000000  0.0000000000000000
