Ir  S  C 
 1.0000000000000000
     3.2709999999999999    0.0000000000000000    0.0000000000000000
    -1.6354999999999991    2.8327690957788989    0.0000000000000000
     0.0000000000000000    0.0000000000000000   25.4780000000000015
 Ir  S   C  
   6   6   3
Direct
  0.9999999999999997  0.9999999999999998  0.6241300000000000
  0.0000000000000000  0.0000000000000000  0.3758700000000000
  0.6666700000000000  0.3333300000000000  0.9574699999999998
  0.6666700000000000  0.3333300000000000  0.7091900000000000
  0.3333300000000000  0.6666700000000000  0.2908100000000000
  0.3333300000000000  0.6666700000000000  0.0425300000000000
  0.0000000000000000  0.0000000000000000  0.7647600000000000
  0.9999999999999997  0.9999999999999998  0.2352399999999999
  0.6666600000000000  0.3333400000000000  0.0980900000000000
  0.6666700000000000  0.3333300000000000  0.5685700000000000
  0.3333300000000000  0.6666700000000000  0.4314300000000000
  0.3333400000000000  0.6666600000000000  0.9019100000000000
  0.0000000000000000  0.0000000000000000  0.0000000000000000
  0.6666700000000000  0.3333300000000000  0.3333199999999999
  0.3333300000000000  0.6666700000000000  0.6666800000000001
