 W Te As 
 1.0000000000000000
     3.2690000000000001    0.0000000000000000    0.0000000000000000
    -1.6344999999999994    2.8310370449713305    0.0000000000000000
     0.0000000000000000    0.0000000000000000    8.5470000000000006
 W   Te  As 
   2   2   1
Direct
  0.6627400000000000  0.3313700000000000  0.8720700000000000
  0.3372600000000000  0.6686300000000001  0.1279300000000000
  0.5540400000000000  0.2770200000000000  0.3235200000000000
  0.4459600000000000  0.7229800000000001  0.6764800000000000
  0.0000000000000000  0.0000000000000000  0.0000000000000000
