Hg Se As 
 1.0000000000000000
     3.2690000000000001    0.0000000000000000    0.0000000000000000
    -1.6344999999999994    2.8310370449713305    0.0000000000000000
     0.0000000000000000    0.0000000000000000    8.5470000000000006
 Hg  Se  As 
   2   2   1
Direct
  0.6934799999999999  0.3467400000000000  0.7702599999999998
  0.3065200000000000  0.6532600000000001  0.2297400000000000
  0.6231500000000001  0.3115800000000001  0.4472500000000000
  0.3768500000000000  0.6884200000000001  0.5527500000000000
  0.0000000000000000  0.0000000000000000  0.0000000000000000
