Au Te Ge 
 1.0000000000000000
     3.2690000000000001    0.0000000000000000    0.0000000000000000
    -1.6344999999999994    2.8310370449713305    0.0000000000000000
     0.0000000000000000    0.0000000000000000    8.5470000000000006
 Au  Te  Ge 
   2   2   1
Direct
  0.6667199999999998  0.3333600000000000  0.8126700000000000
  0.3332800000000001  0.6666400000000001  0.1873300000000000
  0.6665500000000000  0.3332800000000001  0.4005700000000000
  0.3334500000000000  0.6667200000000001  0.5994300000000000
  0.0000000000000000  0.0000000000000000  0.0000000000000000
