Au  S  N 
 1.0000000000000000
     3.2709999999999999    0.0000000000000000    0.0000000000000000
    -1.6354999999999991    2.8327690957788989    0.0000000000000000
     0.0000000000000000    0.0000000000000000   25.4780000000000015
 Au  S   N  
   6   6   3
Direct
  0.9999999999999997  0.9999999999999998  0.6107100000000000
  0.0000000000000000  0.0000000000000000  0.3892899999999999
  0.6666600000000000  0.3333400000000000  0.9440400000000000
  0.6666700000000000  0.3333300000000000  0.7226199999999998
  0.3333300000000000  0.6666700000000000  0.2773800000000000
  0.3333400000000000  0.6666600000000000  0.0559600000000000
  0.9999999999999997  0.9999999999999998  0.7839900000000000
  0.0000000000000000  0.0000000000000000  0.2160100000000000
  0.6666700000000000  0.3333300000000000  0.1173200000000000
  0.6666700000000000  0.3333300000000000  0.5493500000000000
  0.3333300000000000  0.6666700000000000  0.4506500000000000
  0.3333300000000000  0.6666700000000000  0.8826799999999998
  0.0000000000000000  0.0000000000000000  0.0000000000000000
  0.6666700000000000  0.3333300000000000  0.3333400000000000
  0.3333300000000000  0.6666700000000000  0.6666599999999999
