Co Mo  N  S 
 1.0000000000000000
     3.3029999999999999    0.0000000000000000    0.0000000000000000
    -1.6514999999999991    2.8604819087000011    0.0000000000000000
     0.0000000000000000    0.0000000000000000   25.8299999999999983
 Co  Mo  N   S  
   3   6   3   6
Direct
  0.0000000000000000  0.0000000000000000  0.0000000000000000
  0.6680199999999998  0.3319800000000000  0.3788400000000001
  0.3319799999999999  0.6680199999999999  0.6211600000000002
  0.0000900000000000  0.9999100000000000  0.8325700000000000
  0.9999100000000000  0.0000900000000000  0.1674300000000000
  0.6665800000000000  0.3334200000000000  0.2304500000000000
  0.6678099999999999  0.3321900000000000  0.4670400000000000
  0.3321900000000000  0.6678100000000000  0.5329600000000000
  0.3334200000000000  0.6665800000000000  0.7695500000000000
  0.0000000000000000  0.0000000000000000  0.5000000000000000
  0.6667500000000000  0.3332500000000000  0.8223400000000001
  0.3332500000000000  0.6667500000000000  0.1776600000000000
  0.0000700000000001  0.9999300000000001  0.7267300000000001
  0.9999300000000000  0.0000700000000000  0.2732700000000000
  0.6666199999999999  0.3333800000000000  0.0471800000000000
  0.6660900000000000  0.3339100000000000  0.5788300000000000
  0.3339100000000000  0.6660900000000000  0.4211700000000000
  0.3333800000000000  0.6666200000000000  0.9528200000000000
