Na Ru  C Se
 1.0000000000000000
     3.3029999999999999    0.0000000000000000    0.0000000000000000
    -1.6514999999999993    2.8604819087000011    0.0000000000000000
     0.0000000000000000    0.0000000000000000   25.8299999999999983
 Na  Ru  C   Se
   3   6   3   6
Direct
  0.0000000000000000  0.0000000000000000  0.0000000000000000
  0.6815500000000000  0.3184500000000000  0.3340300000000000
  0.3184500000000000  0.6815500000000000  0.6659700000000000
  0.0559000000000000  0.9441000000000001  0.8771600000000001
  0.9441000000000001  0.0559000000000000  0.1228400000000000
  0.7097599999999999  0.2902400000000000  0.2044400000000000
  0.7343899999999999  0.2656100000000000  0.4614400000000000
  0.2656099999999999  0.7343900000000000  0.5385600000000000
  0.2902399999999999  0.7097599999999999  0.7955600000000002
  0.0000000000000000  0.0000000000000000  0.5000000000000000
  0.6294999999999999  0.3705000000000001  0.8189700000000001
  0.3705000000000000  0.6294999999999999  0.1810300000000000
  0.9623199999999997  0.0376800000000000  0.7339900000000000
  0.0376800000000000  0.9623200000000000  0.2660100000000000
  0.6177200000000000  0.3822800000000000  0.0795800000000000
  0.6704500000000000  0.3295500000000000  0.5907200000000000
  0.3295500000000000  0.6704500000000000  0.4092800000000000
  0.3822799999999999  0.6177200000000000  0.9204200000000000
