Fe Mo  C Te
 1.0000000000000000
     3.3029999999999999    0.0000000000000000    0.0000000000000000
    -1.6514999999999993    2.8604819087000011    0.0000000000000000
     0.0000000000000000    0.0000000000000000   25.8299999999999983
 Fe  Mo  C   Te
   3   6   3   6
Direct
  0.0000000000000000  0.0000000000000000  0.0000000000000000
  0.6666700000000000  0.3333300000000000  0.3389800000000000
  0.3333300000000000  0.6666700000000000  0.6610200000000001
  0.0000000000000000  0.0000000000000000  0.8771700000000000
  0.0000000000000000  0.0000000000000000  0.1228300000000000
  0.6666700000000000  0.3333300000000000  0.1760200000000000
  0.6666700000000000  0.3333300000000000  0.4719700000000000
  0.3333300000000000  0.6666700000000000  0.5280300000000000
  0.3333300000000000  0.6666700000000000  0.8239800000000002
  0.0000000000000000  0.0000000000000000  0.5000000000000000
  0.6666600000000000  0.3333400000000000  0.8260300000000000
  0.3333400000000000  0.6666600000000000  0.1739700000000000
  0.0000100000000001  0.9999900000000002  0.7107500000000000
  0.9999899999999998  0.0000100000000000  0.2892500000000000
  0.6666700000000000  0.3333300000000000  0.0589400000000000
  0.6666600000000000  0.3333400000000000  0.5960200000000000
  0.3333400000000000  0.6666600000000000  0.4039800000000000
  0.3333300000000000  0.6666700000000000  0.9410600000000000
