Ta Se Bi 
 1.0000000000000000
     3.2690000000000001    0.0000000000000000    0.0000000000000000
    -1.6344999999999994    2.8310370449713305    0.0000000000000000
     0.0000000000000000    0.0000000000000000    8.5470000000000006
 Ta  Se  Bi 
   2   2   1
Direct
  0.4845800000000001  0.2422900000000000  0.7508600000000000
  0.5154200000000000  0.7577100000000002  0.2491400000000000
  0.8229799999999998  0.4114900000000001  0.3484700000000000
  0.1770199999999999  0.5885100000000000  0.6515300000000001
  0.0000000000000000  0.0000000000000000  0.0000000000000000
