Co Sc  C Te
 1.0000000000000000
     3.3029999999999999    0.0000000000000000    0.0000000000000000
    -1.6514999999999993    2.8604819087000011    0.0000000000000000
     0.0000000000000000    0.0000000000000000   25.8299999999999983
 Co  Sc  C   Te
   3   6   3   6
Direct
  0.0000000000000000  0.0000000000000000  0.0000000000000000
  0.6666600000000000  0.3333400000000000  0.3333300000000001
  0.3333400000000000  0.6666600000000000  0.6666700000000001
  0.0000000000000000  0.0000000000000000  0.8584600000000000
  0.0000000000000000  0.0000000000000000  0.1415400000000000
  0.6666700000000000  0.3333300000000000  0.1917900000000000
  0.6666700000000000  0.3333300000000000  0.4748700000000001
  0.3333300000000000  0.6666700000000000  0.5251300000000000
  0.3333300000000000  0.6666700000000000  0.8082100000000001
  0.0000000000000000  0.0000000000000000  0.5000000000000000
  0.6666700000000000  0.3333300000000000  0.8333300000000000
  0.3333300000000000  0.6666700000000000  0.1666700000000000
  0.0000100000000001  0.9999900000000002  0.7240000000000000
  0.9999899999999998  0.0000100000000000  0.2760000000000000
  0.6666700000000000  0.3333300000000000  0.0573300000000000
  0.6666700000000000  0.3333300000000000  0.6093300000000000
  0.3333300000000000  0.6666700000000000  0.3906700000000000
  0.3333300000000000  0.6666700000000000  0.9426700000000000
