Ca Zr  C Se
 1.0000000000000000
     3.3029999999999999    0.0000000000000000    0.0000000000000000
    -1.6514999999999993    2.8604819087000011    0.0000000000000000
     0.0000000000000000    0.0000000000000000   25.8299999999999983
 Ca  Zr  C   Se
   3   6   3   6
Direct
  0.0000000000000000  0.0000000000000000  0.0000000000000000
  0.9060699999999998  0.0939300000000000  0.3076000000000000
  0.0939300000000000  0.9060700000000000  0.6924000000000000
  0.7106600000000000  0.2893400000000000  0.8677000000000000
  0.2893400000000000  0.7106600000000000  0.1323000000000000
  0.9537600000000001  0.0462400000000000  0.1874900000000000
  0.6740400000000000  0.3259600000000000  0.4721400000000001
  0.3259600000000000  0.6740400000000000  0.5278600000000000
  0.0462400000000000  0.9537600000000001  0.8125100000000000
  0.0000000000000000  0.0000000000000000  0.5000000000000000
  0.3791700000000000  0.6208300000000000  0.8396100000000001
  0.6208300000000000  0.3791700000000000  0.1603900000000000
  0.7602299999999999  0.2397700000000000  0.7232600000000000
  0.2397700000000000  0.7602300000000000  0.2767400000000000
  0.6617200000000000  0.3382800000000000  0.0541900000000000
  0.8182099999999999  0.1817900000000000  0.6000300000000000
  0.1817900000000000  0.8182100000000000  0.3999700000000000
  0.3382800000000000  0.6617200000000000  0.9458100000000000
