Cu Cd  C Se
 1.0000000000000000
     3.3029999999999999    0.0000000000000000    0.0000000000000000
    -1.6514999999999993    2.8604819087000011    0.0000000000000000
     0.0000000000000000    0.0000000000000000   25.8299999999999983
 Cu  Cd  C   Se
   3   6   3   6
Direct
  0.0000000000000000  0.0000000000000000  0.0000000000000000
  0.6666700000000000  0.3333300000000000  0.3333300000000001
  0.3333300000000000  0.6666700000000000  0.6666700000000001
  0.0000000000000000  0.0000000000000000  0.8812900000000001
  0.0000000000000000  0.0000000000000000  0.1187100000000000
  0.6666700000000000  0.3333300000000000  0.2146200000000000
  0.6666700000000000  0.3333300000000000  0.4520400000000000
  0.3333300000000000  0.6666700000000000  0.5479600000000000
  0.3333300000000000  0.6666700000000000  0.7853800000000000
  0.0000000000000000  0.0000000000000000  0.5000000000000000
  0.6666700000000000  0.3333300000000000  0.8333300000000000
  0.3333300000000000  0.6666700000000000  0.1666700000000000
  0.0000000000000000  0.0000000000000000  0.7210900000000000
  0.0000000000000000  0.0000000000000000  0.2789100000000000
  0.6666700000000000  0.3333300000000000  0.0544200000000000
  0.6666700000000000  0.3333300000000000  0.6122500000000000
  0.3333300000000000  0.6666700000000000  0.3877500000000000
  0.3333300000000000  0.6666700000000000  0.9455800000000000
