 Y Te As 
 1.0000000000000000
     3.2709999999999999    0.0000000000000000    0.0000000000000000
    -1.6354999999999993    2.8327690957788989    0.0000000000000000
     0.0000000000000000    0.0000000000000000   25.4780000000000015
 Y   Te  As 
   6   6   3
Direct
  0.9654799999999999  0.0345200000000000  0.6354600000000000
  0.0345200000000000  0.9654800000000000  0.3645400000000000
  0.6678200000000000  0.3321800000000000  0.9668200000000000
  0.6271500000000000  0.3728500000000000  0.7014300000000000
  0.3728500000000000  0.6271500000000000  0.2985700000000000
  0.3321800000000000  0.6678200000000000  0.0331800000000000
  0.0642799999999999  0.9357199999999998  0.7778599999999999
  0.9357199999999999  0.0642800000000000  0.2221400000000000
  0.6196999999999999  0.3803000000000000  0.1096700000000000
  0.7076199999999999  0.2923800000000000  0.5564900000000000
  0.2923799999999999  0.7076200000000000  0.4435099999999999
  0.3803000000000000  0.6196999999999999  0.8903300000000000
  0.0000000000000000  0.0000000000000000  0.0000000000000000
  0.6986599999999998  0.3013400000000000  0.3308300000000000
  0.3013400000000000  0.6986599999999999  0.6691700000000000
