Co Se  C 
 1.0000000000000000
     3.2690000000000001    0.0000000000000000    0.0000000000000000
    -1.6344999999999992    2.8310370449713305    0.0000000000000000
     0.0000000000000000    0.0000000000000000    8.5470000000000006
 Co  Se  C  
   2   2   1
Direct
  0.6666499999999999  0.3333200000000001  0.9020000000000000
  0.3333499999999999  0.6666800000000001  0.0980000000000000
  0.6666999999999997  0.3333500000000000  0.2766600000000000
  0.3333000000000000  0.6666500000000000  0.7233400000000000
  0.0000000000000000  0.0000000000000000  0.0000000000000000
