Pt  S  C 
 1.0000000000000000
     3.2709999999999999    0.0000000000000000    0.0000000000000000
    -1.6354999999999991    2.8327690957788989    0.0000000000000000
     0.0000000000000000    0.0000000000000000   25.4780000000000015
 Pt  S   C  
   6   6   3
Direct
  0.9999999999999997  0.9999999999999998  0.6187700000000000
  0.0000000000000000  0.0000000000000000  0.3812300000000000
  0.6666700000000000  0.3333300000000000  0.9521099999999999
  0.6666700000000000  0.3333300000000000  0.7145600000000000
  0.3333300000000000  0.6666700000000000  0.2854400000000000
  0.3333300000000000  0.6666700000000000  0.0478900000000000
  0.9999999999999997  0.9999999999999998  0.7699300000000000
  0.0000000000000000  0.0000000000000000  0.2300700000000000
  0.6666700000000000  0.3333300000000000  0.1032600000000000
  0.6666700000000000  0.3333300000000000  0.5634100000000000
  0.3333300000000000  0.6666700000000000  0.4365900000000000
  0.3333300000000000  0.6666700000000000  0.8967399999999999
  0.0000000000000000  0.0000000000000000  0.0000000000000000
  0.6666700000000000  0.3333300000000000  0.3333300000000000
  0.3333300000000000  0.6666700000000000  0.6666699999999999
