Os Si Se 
 1.0000000000000000
     3.3435999999999999    0.0000000000000000    0.0000000000000000
    -1.6717999999999993    2.8956425400936490    0.0000000000000000
     0.0000000000000000    0.0000000000000000   11.5808999999999997
 Os  Si  Se 
   4   2   2
Direct
  0.3452200000000000  0.6547800000000000  0.4040000000000000
  0.6547800000000000  0.3452200000000000  0.5960000000000000
  0.6547900000000000  0.3452100000000000  0.9040300000000001
  0.3452100000000000  0.6547900000000000  0.0959700000000000
  0.0000000000000000  0.0000000000000000  0.0000000000000000
  0.0000000000000000  0.0000000000000000  0.5000000000000000
  0.1615699999999999  0.8384299999999999  0.7500800000000000
  0.8384300000000000  0.1615700000000000  0.2499200000000000
