Ca Mo  C  S
 1.0000000000000000
     3.3029999999999999    0.0000000000000000    0.0000000000000000
    -1.6514999999999991    2.8604819087000011    0.0000000000000000
     0.0000000000000000    0.0000000000000000   25.8299999999999983
 Ca  Mo  C   S
   3   6   3   6
Direct
  0.0000000000000000  0.0000000000000000  0.0000000000000000
  0.6666700000000000  0.3333300000000000  0.3333300000000001
  0.3333300000000000  0.6666700000000000  0.6666700000000001
  0.0000000000000000  0.0000000000000000  0.8697000000000001
  0.0000000000000000  0.0000000000000000  0.1303000000000000
  0.6666700000000000  0.3333300000000000  0.2030400000000000
  0.6666700000000000  0.3333300000000000  0.4636300000000000
  0.3333300000000000  0.6666700000000000  0.5363700000000000
  0.3333300000000000  0.6666700000000000  0.7969600000000000
  0.0000000000000000  0.0000000000000000  0.5000000000000000
  0.6666700000000000  0.3333300000000000  0.8333300000000000
  0.3333300000000000  0.6666700000000000  0.1666700000000000
  0.0000000000000000  0.0000000000000000  0.7349700000000000
  0.0000000000000000  0.0000000000000000  0.2650300000000000
  0.6666700000000000  0.3333300000000000  0.0683000000000000
  0.6666700000000000  0.3333300000000000  0.5983700000000000
  0.3333300000000000  0.6666700000000000  0.4016300000000000
  0.3333300000000000  0.6666700000000000  0.9317000000000000
