Zn  S Ge 
 1.0000000000000000
     3.2709999999999999    0.0000000000000000    0.0000000000000000
    -1.6354999999999993    2.8327690957788989    0.0000000000000000
     0.0000000000000000    0.0000000000000000   25.4780000000000015
 Zn  S   Ge 
   6   6   3
Direct
  0.9991100000000001  0.0008900000000000  0.5567700000000000
  0.0008900000000000  0.9991100000000001  0.4432300000000000
  0.7030700000000000  0.2969300000000000  0.9045900000000000
  0.7203300000000000  0.2796699999999999  0.7408300000000000
  0.2796699999999999  0.7203299999999999  0.2591700000000000
  0.2969300000000001  0.7030700000000000  0.0954100000000000
  0.0290700000000000  0.9709299999999998  0.8178699999999999
  0.9709300000000000  0.0290700000000000  0.1821300000000000
  0.6756799999999998  0.3243200000000000  0.1726499999999999
  0.6693699999999999  0.3306300000000000  0.5007200000000001
  0.3306300000000000  0.6693699999999999  0.4992800000000000
  0.3243200000000000  0.6756799999999999  0.8273500000000000
  0.0000000000000000  0.0000000000000000  0.0000000000000000
  0.5431600000000000  0.4568400000000000  0.3537200000000000
  0.4568400000000000  0.5431600000000000  0.6462800000000000
