Cu  Y  C Se
 1.0000000000000000
     3.3029999999999999    0.0000000000000000    0.0000000000000000
    -1.6514999999999993    2.8604819087000011    0.0000000000000000
     0.0000000000000000    0.0000000000000000   25.8299999999999983
 Cu  Y   C   Se
   3   6   3   6
Direct
  0.0000000000000000  0.0000000000000000  0.0000000000000000
  0.7480500000000000  0.2519500000000000  0.3334700000000000
  0.2519500000000001  0.7480500000000000  0.6665300000000000
  0.8044200000000000  0.1955800000000000  0.8623700000000001
  0.1955799999999999  0.8044200000000000  0.1376300000000000
  0.8445900000000000  0.1554100000000000  0.1961700000000000
  0.6752699999999999  0.3247300000000000  0.4708300000000000
  0.3247300000000000  0.6752700000000000  0.5291700000000000
  0.1554100000000001  0.8445900000000001  0.8038300000000000
  0.0000000000000000  0.0000000000000000  0.5000000000000000
  0.4793400000000000  0.5206600000000000  0.8354800000000000
  0.5206600000000000  0.4793400000000000  0.1645200000000000
  0.7323300000000000  0.2676700000000000  0.7307500000000000
  0.2676700000000000  0.7323300000000001  0.2692500000000000
  0.7076399999999998  0.2923600000000000  0.0649800000000000
  0.7719500000000000  0.2280500000000000  0.6022100000000000
  0.2280499999999999  0.7719500000000000  0.3977900000000000
  0.2923600000000000  0.7076400000000000  0.9350200000000001
