Mg Pd  N  S 
 1.0000000000000000
     3.3029999999999999    0.0000000000000000    0.0000000000000000
    -1.6514999999999991    2.8604819087000011    0.0000000000000000
     0.0000000000000000    0.0000000000000000   25.8299999999999983
 Mg  Pd  N   S  
   3   6   3   6
Direct
  0.0000000000000000  0.0000000000000000  0.0000000000000000
  0.6666700000000000  0.3333300000000000  0.3333200000000000
  0.3333300000000000  0.6666700000000000  0.6666800000000002
  0.0000000000000000  0.0000000000000000  0.8773500000000000
  0.0000000000000000  0.0000000000000000  0.1226500000000000
  0.6666700000000000  0.3333300000000000  0.2105800000000000
  0.6666700000000000  0.3333300000000000  0.4560400000000000
  0.3333300000000000  0.6666700000000000  0.5439600000000000
  0.3333300000000000  0.6666700000000000  0.7894200000000000
  0.0000000000000000  0.0000000000000000  0.5000000000000000
  0.6666700000000000  0.3333300000000000  0.8336000000000000
  0.3333300000000000  0.6666700000000000  0.1664000000000000
  0.0000000000000000  0.0000000000000000  0.7373800000000000
  0.0000000000000000  0.0000000000000000  0.2626200000000000
  0.6666700000000000  0.3333300000000000  0.0707000000000000
  0.6666700000000000  0.3333300000000000  0.5959500000000000
  0.3333300000000000  0.6666700000000000  0.4040500000000000
  0.3333300000000000  0.6666700000000000  0.9293000000000001
