Ni Ru  C  S
 1.0000000000000000
     3.3029999999999999    0.0000000000000000    0.0000000000000000
    -1.6514999999999991    2.8604819087000011    0.0000000000000000
     0.0000000000000000    0.0000000000000000   25.8299999999999983
 Ni  Ru  C   S
   3   6   3   6
Direct
  0.0000000000000000  0.0000000000000000  0.0000000000000000
  0.6666700000000000  0.3333300000000000  0.3333300000000001
  0.3333300000000000  0.6666700000000000  0.6666700000000001
  0.0000000000000000  0.0000000000000000  0.8694200000000000
  0.0000000000000000  0.0000000000000000  0.1305800000000000
  0.6666600000000000  0.3333400000000000  0.2027600000000000
  0.6666600000000000  0.3333400000000000  0.4639100000000001
  0.3333400000000000  0.6666600000000000  0.5360900000000000
  0.3333400000000000  0.6666600000000000  0.7972399999999999
  0.0000000000000000  0.0000000000000000  0.5000000000000000
  0.6666600000000000  0.3333400000000000  0.8333400000000000
  0.3333400000000000  0.6666600000000000  0.1666600000000000
  0.0000000000000000  0.0000000000000000  0.7215500000000000
  0.0000000000000000  0.0000000000000000  0.2784500000000000
  0.6666700000000000  0.3333300000000000  0.0548900000000000
  0.6666600000000000  0.3333400000000000  0.6117800000000000
  0.3333400000000000  0.6666600000000000  0.3882200000000000
  0.3333300000000000  0.6666700000000000  0.9451100000000001
