Ti Sc  N Se 
 1.0000000000000000
     3.3029999999999999    0.0000000000000000    0.0000000000000000
    -1.6514999999999991    2.8604819087000011    0.0000000000000000
     0.0000000000000000    0.0000000000000000   25.8299999999999983
 Ti  Sc  N   Se 
   3   6   3   6
Direct
  0.0000000000000000  0.0000000000000000  0.0000000000000000
  0.7503099999999999  0.2496900000000000  0.3137700000000000
  0.2496899999999999  0.7503100000000000  0.6862300000000000
  0.8774599999999998  0.1225400000000000  0.8524600000000001
  0.1225400000000000  0.8774600000000000  0.1475400000000000
  0.7862099999999999  0.2137900000000000  0.2000300000000000
  0.6680300000000000  0.3319700000000000  0.4735700000000000
  0.3319700000000000  0.6680300000000000  0.5264300000000000
  0.2137900000000000  0.7862100000000000  0.7999700000000000
  0.0000000000000000  0.0000000000000000  0.5000000000000000
  0.5518999999999999  0.4481000000000000  0.8249200000000000
  0.4481000000000000  0.5518999999999999  0.1750800000000000
  0.9244699999999999  0.0755300000000000  0.7132800000000000
  0.0755300000000001  0.9244700000000001  0.2867200000000000
  0.6645499999999999  0.3354500000000000  0.0584900000000000
  0.7427400000000000  0.2572600000000000  0.6176900000000000
  0.2572600000000000  0.7427400000000000  0.3823100000000000
  0.3354500000000000  0.6645500000000000  0.9415100000000000
