 V  S  C 
 1.0000000000000000
     3.3121000000000000    0.0000000000000000    0.0000000000000000
    -1.6560499999999991    2.8683627398744393    0.0000000000000000
     0.0000000000000000    0.0000000000000000    9.0113000000000003
 V   S   C  
   4   2   1
Direct
  0.6666600000000003  0.3333300000000000  0.5827900000000000
  0.3333400000000000  0.6666700000000000  0.4172100000000000
  0.6666700000000001  0.3333300000000000  0.8986499999999998
  0.3333300000000001  0.6666700000000000  0.1013500000000000
  0.6666700000000001  0.3333400000000000  0.2782300000000000
  0.3333300000000001  0.6666600000000000  0.7217700000000000
  0.0000000000000000  0.0000000000000000  0.0000000000000000
