 V Cr  C  S
 1.0000000000000000
     3.3029999999999999    0.0000000000000000    0.0000000000000000
    -1.6514999999999991    2.8604819087000011    0.0000000000000000
     0.0000000000000000    0.0000000000000000   25.8299999999999983
 V   Cr  C   S
   3   6   3   6
Direct
  0.0000000000000000  0.0000000000000000  0.0000000000000000
  0.6666700000000000  0.3333300000000000  0.3333300000000001
  0.3333300000000000  0.6666700000000000  0.6666700000000001
  0.0000000000000000  0.0000000000000000  0.8724100000000000
  0.0000000000000000  0.0000000000000000  0.1275900000000000
  0.6666700000000000  0.3333300000000000  0.2057400000000000
  0.6666600000000000  0.3333400000000000  0.4609300000000000
  0.3333400000000000  0.6666600000000000  0.5390700000000000
  0.3333300000000000  0.6666700000000000  0.7942600000000000
  0.0000000000000000  0.0000000000000000  0.5000000000000000
  0.6666700000000000  0.3333300000000000  0.8333300000000000
  0.3333300000000000  0.6666700000000000  0.1666700000000000
  0.0000000000000000  0.0000000000000000  0.7258300000000000
  0.0000000000000000  0.0000000000000000  0.2741700000000000
  0.6666700000000000  0.3333300000000000  0.0591600000000000
  0.6666600000000000  0.3333400000000000  0.6075100000000000
  0.3333400000000000  0.6666600000000000  0.3924900000000000
  0.3333300000000000  0.6666700000000000  0.9408400000000000
