Zn  Y Te  C 
 1.0000000000000000
     3.3121000000000000    0.0000000000000000    0.0000000000000000
    -1.6560499999999991    2.8683627398744393    0.0000000000000000
     0.0000000000000000    0.0000000000000000    9.0113000000000003
 Zn  Y   Te  C  
   2   2   2   1
Direct
  0.6666700000000001  0.3333300000000000  0.5609700000000000
  0.3333300000000001  0.6666700000000000  0.4390300000000000
  0.6666700000000001  0.3333300000000000  0.8870700000000000
  0.3333300000000001  0.6666700000000000  0.1129300000000000
  0.6666700000000001  0.3333300000000000  0.2940500000000000
  0.3333300000000001  0.6666700000000000  0.7059500000000000
  0.0000000000000000  0.0000000000000000  0.0000000000000000
