Ca Ru  N  S 
 1.0000000000000000
     3.3029999999999999    0.0000000000000000    0.0000000000000000
    -1.6514999999999991    2.8604819087000011    0.0000000000000000
     0.0000000000000000    0.0000000000000000   25.8299999999999983
 Ca  Ru  N   S  
   3   6   3   6
Direct
  0.0000000000000000  0.0000000000000000  0.0000000000000000
  0.6666499999999999  0.3333500000000000  0.3332500000000000
  0.3333499999999999  0.6666500000000000  0.6667500000000000
  0.0000300000000000  0.9999700000000000  0.8746900000000000
  0.9999699999999998  0.0000300000000000  0.1253100000000000
  0.6666999999999998  0.3333000000000000  0.2080300000000000
  0.6666600000000000  0.3333400000000000  0.4586700000000000
  0.3333400000000000  0.6666600000000000  0.5413300000000000
  0.3332999999999999  0.6667000000000000  0.7919700000000000
  0.0000000000000000  0.0000000000000000  0.5000000000000000
  0.6666800000000001  0.3333200000000000  0.8336200000000000
  0.3333200000000000  0.6666800000000001  0.1663800000000000
  0.9999600000000000  0.0000400000000000  0.7571400000000000
  0.0000400000000001  0.9999600000000000  0.2428600000000000
  0.6666299999999999  0.3333700000000000  0.0904900000000000
  0.6666800000000001  0.3333200000000000  0.5761500000000001
  0.3333200000000000  0.6666800000000001  0.4238500000000000
  0.3333700000000000  0.6666299999999999  0.9095100000000002
