 V Au  N  S 
 1.0000000000000000
     3.3029999999999999    0.0000000000000000    0.0000000000000000
    -1.6514999999999991    2.8604819087000011    0.0000000000000000
     0.0000000000000000    0.0000000000000000   25.8299999999999983
 V   Au  N   S  
   3   6   3   6
Direct
  0.0000000000000000  0.0000000000000000  0.0000000000000000
  0.5646400000000000  0.4353600000000000  0.3211900000000000
  0.4353600000000000  0.5646400000000000  0.6788100000000000
  0.1384300000000000  0.8615699999999999  0.8875700000000000
  0.8615699999999999  0.1384300000000000  0.1124300000000000
  0.4847400000000000  0.5152600000000001  0.2285700000000000
  0.5357700000000000  0.4642300000000000  0.4451000000000000
  0.4642300000000000  0.5357700000000000  0.5548999999999999
  0.5152600000000001  0.4847400000000000  0.7714299999999999
  0.0000000000000000  0.0000000000000000  0.5000000000000000
  0.9952499999999999  0.0047500000000000  0.8211000000000001
  0.0047500000000000  0.9952500000000001  0.1789000000000000
  0.1146600000000000  0.8853400000000000  0.7042300000000000
  0.8853400000000000  0.1146600000000000  0.2957700000000000
  0.6575200000000000  0.3424800000000000  0.0409400000000000
  0.9225199999999998  0.0774800000000000  0.6176100000000000
  0.0774799999999999  0.9225200000000000  0.3823900000000000
  0.3424799999999999  0.6575200000000000  0.9590600000000000
