Re As  S 
 1.0000000000000000
     3.3435999999999999    0.0000000000000000    0.0000000000000000
    -1.6717999999999993    2.8956425400936490    0.0000000000000000
     0.0000000000000000    0.0000000000000000   11.5808999999999997
 Re  As  S  
   4   2   2
Direct
  0.2894699999999999  0.7105300000000000  0.3701900000000000
  0.7105300000000000  0.2894700000000000  0.6298100000000000
  0.7109199999999999  0.2890800000000000  0.8701899999999999
  0.2890800000000000  0.7109200000000000  0.1298100000000000
  0.0000000000000000  0.0000000000000000  0.0000000000000000
  0.0000000000000000  0.0000000000000000  0.5000000000000000
  0.2472099999999999  0.7527899999999997  0.7499900000000002
  0.7527900000000000  0.2472100000000000  0.2500100000000000
