Ti Os  C Te
 1.0000000000000000
     3.3029999999999999    0.0000000000000000    0.0000000000000000
    -1.6514999999999993    2.8604819087000011    0.0000000000000000
     0.0000000000000000    0.0000000000000000   25.8299999999999983
 Ti  Os  C   Te
   3   6   3   6
Direct
  0.0000000000000000  0.0000000000000000  0.0000000000000000
  0.9470800000000000  0.0529200000000000  0.3247600000000000
  0.0529200000000000  0.9470800000000000  0.6752400000000000
  0.0023200000000000  0.9976800000000000  0.9007100000000000
  0.9976800000000000  0.0023200000000000  0.0992900000000000
  0.4287300000000000  0.5712699999999999  0.1813600000000000
  0.6245199999999999  0.3754800000000000  0.4605300000000000
  0.3754799999999999  0.6245200000000000  0.5394700000000000
  0.5712699999999999  0.4287300000000000  0.8186400000000000
  0.0000000000000000  0.0000000000000000  0.5000000000000000
  0.9044000000000000  0.0956000000000000  0.8235100000000000
  0.0956000000000000  0.9044000000000000  0.1764900000000000
  0.7170200000000000  0.2829800000000000  0.7226500000000000
  0.2829800000000000  0.7170200000000000  0.2773500000000000
  0.6629999999999998  0.3370000000000000  0.0504800000000000
  0.6972500000000000  0.3027500000000000  0.5998599999999999
  0.3027499999999999  0.6972500000000000  0.4001400000000000
  0.3370000000000000  0.6630000000000000  0.9495200000000001
