Ru Se Ge 
 1.0000000000000000
     3.2690000000000001    0.0000000000000000    0.0000000000000000
    -1.6344999999999994    2.8310370449713305    0.0000000000000000
     0.0000000000000000    0.0000000000000000    8.5470000000000006
 Ru  Se  Ge 
   2   2   1
Direct
  0.6023100000000000  0.3011500000000000  0.8538400000000000
  0.3976899999999999  0.6988500000000001  0.1461600000000000
  0.3752599999999999  0.1876300000000000  0.3215900000000000
  0.6247400000000000  0.8123700000000000  0.6784100000000000
  0.0000000000000000  0.0000000000000000  0.0000000000000000
