Na Ti  C  S
 1.0000000000000000
     3.3029999999999999    0.0000000000000000    0.0000000000000000
    -1.6514999999999991    2.8604819087000011    0.0000000000000000
     0.0000000000000000    0.0000000000000000   25.8299999999999983
 Na  Ti  C   S
   3   6   3   6
Direct
  0.0000000000000000  0.0000000000000000  0.0000000000000000
  0.6666700000000000  0.3333300000000000  0.3333300000000001
  0.3333300000000000  0.6666700000000000  0.6666700000000001
  0.0000000000000000  0.0000000000000000  0.8756600000000000
  0.0000000000000000  0.0000000000000000  0.1243400000000000
  0.6666700000000000  0.3333300000000000  0.2090000000000000
  0.6666700000000000  0.3333300000000000  0.4576700000000000
  0.3333300000000000  0.6666700000000000  0.5423300000000000
  0.3333300000000000  0.6666700000000000  0.7910000000000000
  0.0000000000000000  0.0000000000000000  0.5000000000000000
  0.6666700000000000  0.3333300000000000  0.8333300000000000
  0.3333300000000000  0.6666700000000000  0.1666700000000000
  0.0000000000000000  0.0000000000000000  0.7339200000000000
  0.0000000000000000  0.0000000000000000  0.2660800000000000
  0.6666700000000000  0.3333300000000000  0.0672500000000000
  0.6666700000000000  0.3333300000000000  0.5994100000000000
  0.3333300000000000  0.6666700000000000  0.4005900000000000
  0.3333300000000000  0.6666700000000000  0.9327500000000000
