Ni Os  C Se
 1.0000000000000000
     3.3029999999999999    0.0000000000000000    0.0000000000000000
    -1.6514999999999993    2.8604819087000011    0.0000000000000000
     0.0000000000000000    0.0000000000000000   25.8299999999999983
 Ni  Os  C   Se
   3   6   3   6
Direct
  0.0000000000000000  0.0000000000000000  0.0000000000000000
  0.5689400000000000  0.4310600000000001  0.3238300000000000
  0.4310600000000000  0.5689400000000000  0.6761700000000000
  0.2607100000000000  0.7392900000000000  0.8726100000000000
  0.7392900000000000  0.2607100000000000  0.1273900000000000
  0.4985300000000000  0.5014700000000000  0.2117200000000000
  0.7481300000000000  0.2518700000000000  0.4582500000000000
  0.2518700000000000  0.7481300000000000  0.5417500000000000
  0.5014700000000000  0.4985300000000000  0.7882800000000000
  0.0000000000000000  0.0000000000000000  0.5000000000000000
  0.7698899999999999  0.2301100000000000  0.8337000000000001
  0.2301100000000001  0.7698900000000001  0.1663000000000000
  0.1311700000000000  0.8688300000000000  0.7352400000000000
  0.8688300000000000  0.1311700000000000  0.2647600000000000
  0.4651799999999999  0.5348200000000000  0.0640700000000000
  0.6981800000000000  0.3018200000000000  0.6012800000000000
  0.3018200000000000  0.6981800000000000  0.3987200000000001
  0.5348200000000000  0.4651800000000000  0.9359300000000000
