Ca Hf  C Te
 1.0000000000000000
     3.3029999999999999    0.0000000000000000    0.0000000000000000
    -1.6514999999999993    2.8604819087000011    0.0000000000000000
     0.0000000000000000    0.0000000000000000   25.8299999999999983
 Ca  Hf  C   Te
   3   6   3   6
Direct
  0.0000000000000000  0.0000000000000000  0.0000000000000000
  0.8618600000000000  0.1381400000000000  0.3124500000000000
  0.1381400000000001  0.8618600000000001  0.6875500000000001
  0.7761700000000001  0.2238300000000000  0.8595800000000002
  0.2238299999999999  0.7761700000000000  0.1404200000000000
  0.8856000000000001  0.1144000000000000  0.1944800000000000
  0.6720399999999997  0.3279600000000000  0.4729400000000000
  0.3279600000000000  0.6720400000000000  0.5270600000000000
  0.1144000000000000  0.8856000000000001  0.8055200000000000
  0.0000000000000000  0.0000000000000000  0.5000000000000000
  0.4495299999999999  0.5504700000000000  0.8334800000000001
  0.5504700000000000  0.4495300000000000  0.1665200000000000
  0.8042799999999998  0.1957200000000000  0.7275400000000002
  0.1957200000000001  0.8042800000000001  0.2724600000000000
  0.6584500000000000  0.3415500000000000  0.0627800000000000
  0.8269099999999999  0.1730900000000000  0.6055300000000000
  0.1730900000000000  0.8269100000000000  0.3944700000000000
  0.3415500000000000  0.6584500000000000  0.9372200000000001
