 Y Te In 
 1.0000000000000000
     3.2709999999999999    0.0000000000000000    0.0000000000000000
    -1.6354999999999993    2.8327690957788989    0.0000000000000000
     0.0000000000000000    0.0000000000000000   25.4780000000000015
 Y   Te  In 
   6   6   3
Direct
  0.9999999999999997  0.9999999999999998  0.6023700000000000
  0.0000000000000000  0.0000000000000000  0.3976299999999999
  0.6666700000000000  0.3333300000000000  0.9357000000000000
  0.6666700000000000  0.3333300000000000  0.7309600000000001
  0.3333300000000000  0.6666700000000000  0.2690400000000000
  0.3333300000000000  0.6666700000000000  0.0643000000000000
  0.9999999999999997  0.9999999999999998  0.7846300000000000
  0.0000000000000000  0.0000000000000000  0.2153700000000000
  0.6666700000000000  0.3333300000000000  0.1179600000000000
  0.6666700000000000  0.3333300000000000  0.5487000000000000
  0.3333300000000000  0.6666700000000000  0.4513000000000000
  0.3333300000000000  0.6666700000000000  0.8820400000000000
  0.0000000000000000  0.0000000000000000  0.0000000000000000
  0.6666700000000000  0.3333300000000000  0.3333300000000000
  0.3333300000000000  0.6666700000000000  0.6666699999999999
