Mg Sc Se  N 
 1.0000000000000000
     3.3121000000000000    0.0000000000000000    0.0000000000000000
    -1.6560499999999994    2.8683627398744393    0.0000000000000000
     0.0000000000000000    0.0000000000000000    9.0113000000000003
 Mg  Sc  Se  N  
   2   2   2   1
Direct
  0.6666700000000001  0.3333300000000000  0.5799299999999999
  0.3333300000000001  0.6666700000000000  0.4200700000000000
  0.6666700000000001  0.3333300000000000  0.8949200000000002
  0.3333300000000001  0.6666700000000000  0.1050800000000000
  0.6666700000000001  0.3333300000000000  0.2751300000000000
  0.3333300000000001  0.6666700000000000  0.7248700000000000
  0.0000000000000000  0.0000000000000000  0.0000000000000000
