Hf Sb Se 
 1.0000000000000000
     3.3435999999999999    0.0000000000000000    0.0000000000000000
    -1.6717999999999993    2.8956425400936490    0.0000000000000000
     0.0000000000000000    0.0000000000000000   11.5808999999999997
 Hf  Sb  Se 
   4   2   2
Direct
  0.3332700000000000  0.6667300000000000  0.3516000000000000
  0.6667300000000000  0.3332700000000000  0.6484000000000000
  0.6667300000000000  0.3332700000000000  0.8515999999999999
  0.3332700000000000  0.6667300000000000  0.1484000000000000
  0.0000000000000000  0.0000000000000000  0.0000000000000000
  0.0000000000000000  0.0000000000000000  0.5000000000000000
  0.3333400000000000  0.6666599999999999  0.7500000000000000
  0.6666600000000000  0.3333400000000000  0.2500000000000000
