Re As Se 
 1.0000000000000000
     3.3435999999999999    0.0000000000000000    0.0000000000000000
    -1.6717999999999993    2.8956425400936490    0.0000000000000000
     0.0000000000000000    0.0000000000000000   11.5808999999999997
 Re  As  Se 
   4   2   2
Direct
  0.3206200000000000  0.6793800000000000  0.3970500000000000
  0.6793800000000000  0.3206200000000000  0.6029500000000000
  0.6794000000000000  0.3206000000000000  0.8970500000000000
  0.3205999999999999  0.6794000000000000  0.1029500000000000
  0.0000000000000000  0.0000000000000000  0.0000000000000000
  0.0000000000000000  0.0000000000000000  0.5000000000000000
  0.2886500000000000  0.7113499999999999  0.7500000000000000
  0.7113500000000000  0.2886500000000000  0.2500000000000000
