Mg Mo  N Se 
 1.0000000000000000
     3.3029999999999999    0.0000000000000000    0.0000000000000000
    -1.6514999999999993    2.8604819087000011    0.0000000000000000
     0.0000000000000000    0.0000000000000000   25.8299999999999983
 Mg  Mo  N   Se 
   3   6   3   6
Direct
  0.0000000000000000  0.0000000000000000  0.0000000000000000
  0.6666199999999999  0.3333800000000000  0.3304700000000000
  0.3333800000000000  0.6666200000000000  0.6695300000000000
  0.0000500000000000  0.9999500000000000  0.8725100000000000
  0.9999500000000000  0.0000500000000000  0.1274900000000000
  0.6666100000000000  0.3333900000000000  0.1864600000000000
  0.6666800000000001  0.3333200000000000  0.4720600000000000
  0.3333200000000000  0.6666800000000001  0.5279400000000000
  0.3333899999999999  0.6666100000000000  0.8135400000000000
  0.0000000000000000  0.0000000000000000  0.5000000000000000
  0.6667200000000000  0.3332800000000000  0.8576700000000003
  0.3332800000000000  0.6667200000000000  0.1423300000000000
  0.0000600000000000  0.9999400000000002  0.7666400000000000
  0.9999399999999998  0.0000600000000000  0.2333600000000000
  0.6666299999999999  0.3333700000000000  0.0715200000000000
  0.6666499999999999  0.3333500000000000  0.5785100000000000
  0.3333499999999999  0.6666500000000000  0.4214900000000000
  0.3333700000000000  0.6666299999999999  0.9284800000000001
