Sc Hf  N  S 
 1.0000000000000000
     3.3029999999999999    0.0000000000000000    0.0000000000000000
    -1.6514999999999991    2.8604819087000011    0.0000000000000000
     0.0000000000000000    0.0000000000000000   25.8299999999999983
 Sc  Hf  N   S  
   3   6   3   6
Direct
  0.0000000000000000  0.0000000000000000  0.0000000000000000
  0.6666900000000000  0.3333100000000000  0.3333100000000000
  0.3333099999999999  0.6666900000000000  0.6666900000000001
  0.0000000000000000  0.0000000000000000  0.8623000000000000
  0.0000000000000000  0.0000000000000000  0.1377000000000000
  0.6666700000000000  0.3333300000000000  0.1955900000000000
  0.6666700000000000  0.3333300000000000  0.4710600000000000
  0.3333300000000000  0.6666700000000000  0.5289400000000000
  0.3333300000000000  0.6666700000000000  0.8044100000000000
  0.0000000000000000  0.0000000000000000  0.5000000000000000
  0.6666600000000000  0.3333400000000000  0.8333600000000000
  0.3333400000000000  0.6666600000000000  0.1666400000000000
  0.0000100000000001  0.9999900000000002  0.7170400000000000
  0.9999899999999998  0.0000100000000000  0.2829600000000000
  0.6666600000000000  0.3333400000000000  0.0503000000000000
  0.6666900000000000  0.3333100000000000  0.6163000000000000
  0.3333099999999999  0.6666900000000000  0.3837000000000000
  0.3333400000000000  0.6666600000000000  0.9497000000000000
