Mg Cu  C Se
 1.0000000000000000
     3.3029999999999999    0.0000000000000000    0.0000000000000000
    -1.6514999999999993    2.8604819087000011    0.0000000000000000
     0.0000000000000000    0.0000000000000000   25.8299999999999983
 Mg  Cu  C   Se
   3   6   3   6
Direct
  0.0000000000000000  0.0000000000000000  0.0000000000000000
  0.6666700000000000  0.3333300000000000  0.3333300000000001
  0.3333300000000000  0.6666700000000000  0.6666700000000001
  0.0000000000000000  0.0000000000000000  0.8764500000000002
  0.0000000000000000  0.0000000000000000  0.1235500000000000
  0.6666700000000000  0.3333300000000000  0.2097800000000000
  0.6666700000000000  0.3333300000000000  0.4568800000000000
  0.3333300000000000  0.6666700000000000  0.5431200000000000
  0.3333300000000000  0.6666700000000000  0.7902200000000000
  0.0000000000000000  0.0000000000000000  0.5000000000000000
  0.6666700000000000  0.3333300000000000  0.8333300000000000
  0.3333300000000000  0.6666700000000000  0.1666700000000000
  0.9999899999999998  0.0000100000000000  0.7273200000000000
  0.0000100000000001  0.9999900000000002  0.2726800000000000
  0.6666600000000000  0.3333400000000000  0.0606600000000000
  0.6666700000000000  0.3333300000000000  0.6060100000000000
  0.3333300000000000  0.6666700000000000  0.3939900000000001
  0.3333400000000000  0.6666600000000000  0.9393400000000000
