Co Ru Te  N 
 1.0000000000000000
     3.3121000000000000    0.0000000000000000    0.0000000000000000
    -1.6560499999999994    2.8683627398744393    0.0000000000000000
     0.0000000000000000    0.0000000000000000    9.0113000000000003
 Co  Ru  Te  N  
   2   2   2   1
Direct
  0.6666600000000003  0.3333300000000000  0.5686200000000000
  0.3333400000000000  0.6666700000000000  0.4313800000000000
  0.6666600000000003  0.3333300000000000  0.9057299999999999
  0.3333400000000000  0.6666700000000000  0.0942700000000000
  0.6666700000000001  0.3333300000000000  0.2866400000000000
  0.3333300000000001  0.6666700000000000  0.7133600000000000
  0.0000000000000000  0.0000000000000000  0.0000000000000000
