Pd Te In 
 1.0000000000000000
     3.2690000000000001    0.0000000000000000    0.0000000000000000
    -1.6344999999999994    2.8310370449713305    0.0000000000000000
     0.0000000000000000    0.0000000000000000    8.5470000000000006
 Pd  Te  In 
   2   2   1
Direct
  0.6756900000000000  0.3378400000000000  0.7882500000000000
  0.3243099999999999  0.6621600000000000  0.2117500000000000
  0.6365599999999998  0.3182800000000001  0.3965200000000000
  0.3634400000000000  0.6817200000000000  0.6034800000000000
  0.0000000000000000  0.0000000000000000  0.0000000000000000
