Ir Te Ga 
 1.0000000000000000
     3.2709999999999999    0.0000000000000000    0.0000000000000000
    -1.6354999999999993    2.8327690957788989    0.0000000000000000
     0.0000000000000000    0.0000000000000000   25.4780000000000015
 Ir  Te  Ga 
   6   6   3
Direct
  0.9999999999999997  0.9999999999999998  0.6163999999999999
  0.0000000000000000  0.0000000000000000  0.3836000000000000
  0.6666700000000000  0.3333300000000000  0.9497400000000000
  0.6666700000000000  0.3333300000000000  0.7169300000000000
  0.3333300000000000  0.6666700000000000  0.2830700000000000
  0.3333300000000000  0.6666700000000000  0.0502600000000000
  0.9999999999999997  0.9999999999999998  0.7801500000000000
  0.0000000000000000  0.0000000000000000  0.2198500000000000
  0.6666700000000000  0.3333300000000000  0.1134800000000000
  0.6666700000000000  0.3333300000000000  0.5531900000000000
  0.3333300000000000  0.6666700000000000  0.4468100000000000
  0.3333300000000000  0.6666700000000000  0.8865200000000000
  0.0000000000000000  0.0000000000000000  0.0000000000000000
  0.6666700000000000  0.3333300000000000  0.3333300000000000
  0.3333300000000000  0.6666700000000000  0.6666699999999999
