Co Os  N  S 
 1.0000000000000000
     3.3029999999999999    0.0000000000000000    0.0000000000000000
    -1.6514999999999991    2.8604819087000011    0.0000000000000000
     0.0000000000000000    0.0000000000000000   25.8299999999999983
 Co  Os  N   S  
   3   6   3   6
Direct
  0.0000000000000000  0.0000000000000000  0.0000000000000000
  0.6963700000000000  0.3036300000000000  0.3642300000000000
  0.3036300000000000  0.6963700000000000  0.6357699999999999
  0.1257100000000000  0.8742900000000000  0.9035800000000003
  0.8742900000000000  0.1257100000000000  0.0964200000000000
  0.6978100000000000  0.3021900000000000  0.1867400000000000
  0.7692300000000000  0.2307700000000000  0.4543200000000000
  0.2307700000000000  0.7692300000000001  0.5456800000000001
  0.3021900000000000  0.6978100000000000  0.8132600000000001
  0.0000000000000000  0.0000000000000000  0.5000000000000000
  0.7994899999999998  0.2005100000000000  0.8703400000000001
  0.2005100000000000  0.7994900000000000  0.1296600000000000
  0.9756299999999998  0.0243700000000000  0.7715700000000001
  0.0243700000000000  0.9756300000000000  0.2284300000000000
  0.5487100000000000  0.4512900000000000  0.0560200000000000
  0.6182299999999997  0.3817700000000000  0.5963600000000000
  0.3817700000000000  0.6182299999999999  0.4036400000000000
  0.4512900000000000  0.5487100000000000  0.9439800000000000
