Ni Sc  N  S 
 1.0000000000000000
     3.3029999999999999    0.0000000000000000    0.0000000000000000
    -1.6514999999999991    2.8604819087000011    0.0000000000000000
     0.0000000000000000    0.0000000000000000   25.8299999999999983
 Ni  Sc  N   S  
   3   6   3   6
Direct
  0.0000000000000000  0.0000000000000000  0.0000000000000000
  0.7084300000000000  0.2915700000000000  0.3465000000000000
  0.2915700000000000  0.7084300000000000  0.6535000000000000
  0.0225099999999999  0.9774900000000000  0.8508500000000000
  0.9774899999999999  0.0225100000000000  0.1491500000000000
  0.7287699999999998  0.2712300000000000  0.2589100000000000
  0.6810000000000000  0.3190000000000000  0.4714600000000000
  0.3190000000000000  0.6810000000000000  0.5285400000000000
  0.2712300000000000  0.7287700000000001  0.7410900000000000
  0.0000000000000000  0.0000000000000000  0.5000000000000000
  0.6887500000000000  0.3112500000000000  0.8373900000000000
  0.3112499999999999  0.6887500000000000  0.1626100000000000
  0.9366400000000000  0.0633600000000000  0.7126100000000001
  0.0633600000000000  0.9366400000000000  0.2873900000000000
  0.5070600000000000  0.4929400000000000  0.0519300000000000
  0.7743600000000000  0.2256400000000000  0.5914400000000000
  0.2256400000000001  0.7743600000000000  0.4085600000000000
  0.4929399999999999  0.5070600000000000  0.9480700000000001
