Cu Hg  C Se
 1.0000000000000000
     3.3029999999999999    0.0000000000000000    0.0000000000000000
    -1.6514999999999993    2.8604819087000011    0.0000000000000000
     0.0000000000000000    0.0000000000000000   25.8299999999999983
 Cu  Hg  C   Se
   3   6   3   6
Direct
  0.0000000000000000  0.0000000000000000  0.0000000000000000
  0.6666700000000000  0.3333300000000000  0.3333300000000001
  0.3333300000000000  0.6666700000000000  0.6666700000000001
  0.0000000000000000  0.0000000000000000  0.8820600000000000
  0.0000000000000000  0.0000000000000000  0.1179400000000000
  0.6666700000000000  0.3333300000000000  0.2153900000000000
  0.6666700000000000  0.3333300000000000  0.4512700000000001
  0.3333300000000000  0.6666700000000000  0.5487300000000001
  0.3333300000000000  0.6666700000000000  0.7846100000000001
  0.0000000000000000  0.0000000000000000  0.5000000000000000
  0.6666700000000000  0.3333300000000000  0.8333300000000000
  0.3333300000000000  0.6666700000000000  0.1666700000000000
  0.0000000000000000  0.0000000000000000  0.7203300000000000
  0.0000000000000000  0.0000000000000000  0.2796700000000000
  0.6666700000000000  0.3333300000000000  0.0536600000000000
  0.6666700000000000  0.3333300000000000  0.6130100000000001
  0.3333300000000000  0.6666700000000000  0.3869900000000000
  0.3333300000000000  0.6666700000000000  0.9463400000000000
