Fe  W  C Te
 1.0000000000000000
     3.3029999999999999    0.0000000000000000    0.0000000000000000
    -1.6514999999999993    2.8604819087000011    0.0000000000000000
     0.0000000000000000    0.0000000000000000   25.8299999999999983
 Fe  W   C   Te
   3   6   3   6
Direct
  0.0000000000000000  0.0000000000000000  0.0000000000000000
  0.6676200000000000  0.3323800000000000  0.3383800000000001
  0.3323799999999999  0.6676200000000000  0.6616200000000001
  0.0000300000000000  0.9999700000000000  0.8768500000000001
  0.9999699999999998  0.0000300000000000  0.1231500000000000
  0.6666999999999998  0.3333000000000000  0.1786300000000000
  0.6666900000000000  0.3333100000000000  0.4714900000000001
  0.3333099999999999  0.6666900000000000  0.5285100000000000
  0.3332999999999999  0.6667000000000000  0.8213700000000000
  0.0000000000000000  0.0000000000000000  0.5000000000000000
  0.6666299999999999  0.3333700000000000  0.8265800000000000
  0.3333700000000000  0.6666299999999999  0.1734200000000000
  0.9991399999999998  0.0008600000000000  0.7107700000000000
  0.0008600000000000  0.9991400000000000  0.2892300000000000
  0.6666400000000000  0.3333600000000000  0.0583700000000000
  0.6657100000000000  0.3342900000000000  0.5972300000000000
  0.3342900000000000  0.6657100000000000  0.4027700000000000
  0.3333600000000000  0.6666400000000000  0.9416300000000000
