Hf Se  B 
 1.0000000000000000
     3.2690000000000001    0.0000000000000000    0.0000000000000000
    -1.6344999999999994    2.8310370449713305    0.0000000000000000
     0.0000000000000000    0.0000000000000000    8.5470000000000006
 Hf  Se  B  
   2   2   1
Direct
  0.6666499999999999  0.3333300000000000  0.9109500000000000
  0.3333499999999999  0.6666700000000000  0.0890500000000000
  0.6664199999999998  0.3332100000000001  0.3533300000000000
  0.3335799999999999  0.6667900000000000  0.6466699999999999
  0.0000000000000000  0.0000000000000000  0.0000000000000000
