Ni Hg  N  S 
 1.0000000000000000
     3.3029999999999999    0.0000000000000000    0.0000000000000000
    -1.6514999999999991    2.8604819087000011    0.0000000000000000
     0.0000000000000000    0.0000000000000000   25.8299999999999983
 Ni  Hg  N   S  
   3   6   3   6
Direct
  0.0000000000000000  0.0000000000000000  0.0000000000000000
  0.6666700000000000  0.3333300000000000  0.3333300000000001
  0.3333300000000000  0.6666700000000000  0.6666700000000001
  0.0000000000000000  0.0000000000000000  0.8853100000000000
  0.0000000000000000  0.0000000000000000  0.1146900000000000
  0.6666700000000000  0.3333300000000000  0.2186000000000000
  0.6666600000000000  0.3333400000000000  0.4480400000000000
  0.3333400000000000  0.6666600000000000  0.5519600000000000
  0.3333300000000000  0.6666700000000000  0.7814000000000000
  0.0000000000000000  0.0000000000000000  0.5000000000000000
  0.6666700000000000  0.3333300000000000  0.8333900000000000
  0.3333300000000000  0.6666700000000000  0.1666100000000000
  0.9999899999999998  0.0000100000000000  0.7138200000000000
  0.0000100000000001  0.9999900000000002  0.2861800000000000
  0.6666700000000000  0.3333300000000000  0.0471600000000000
  0.6666700000000000  0.3333300000000000  0.6195100000000001
  0.3333300000000000  0.6666700000000000  0.3804900000000000
  0.3333300000000000  0.6666700000000000  0.9528400000000000
