Pt  S Sn 
 1.0000000000000000
     3.2709999999999999    0.0000000000000000    0.0000000000000000
    -1.6354999999999993    2.8327690957788989    0.0000000000000000
     0.0000000000000000    0.0000000000000000   25.4780000000000015
 Pt  S   Sn 
   6   6   3
Direct
  0.9999999999999997  0.9999999999999998  0.5610800000000000
  0.0000000000000000  0.0000000000000000  0.4389200000000000
  0.6666700000000000  0.3333300000000000  0.8944099999999998
  0.6666700000000000  0.3333300000000000  0.7722599999999999
  0.3333300000000000  0.6666700000000000  0.2277399999999999
  0.3333300000000000  0.6666700000000000  0.1055900000000000
  0.0000000000000000  0.0000000000000000  0.8283300000000000
  0.9999999999999997  0.9999999999999998  0.1716700000000000
  0.6666700000000000  0.3333300000000000  0.1616700000000000
  0.6666700000000000  0.3333300000000000  0.5050000000000000
  0.3333300000000000  0.6666700000000000  0.4950000000000000
  0.3333300000000000  0.6666700000000000  0.8383300000000000
  0.0000000000000000  0.0000000000000000  0.0000000000000000
  0.6666600000000000  0.3333400000000000  0.3333300000000000
  0.3333400000000000  0.6666600000000000  0.6666699999999999
