Hf  S Bi 
 1.0000000000000000
     3.2709999999999999    0.0000000000000000    0.0000000000000000
    -1.6354999999999993    2.8327690957788989    0.0000000000000000
     0.0000000000000000    0.0000000000000000   25.4780000000000015
 Hf  S   Bi 
   6   6   3
Direct
  0.9982699999999999  0.0017300000000000  0.5731700000000000
  0.0017300000000000  0.9982699999999999  0.4268300000000000
  0.7741500000000000  0.2258500000000000  0.9099299999999998
  0.7429599999999998  0.2570400000000000  0.7521899999999999
  0.2570399999999998  0.7429599999999997  0.2478100000000000
  0.2258499999999999  0.7741499999999998  0.0900700000000000
  0.0777000000000000  0.9223000000000000  0.7798899999999999
  0.9223000000000000  0.0777000000000000  0.2201100000000000
  0.5671900000000000  0.4328099999999999  0.1192100000000000
  0.6601800000000000  0.3398200000000000  0.5449100000000000
  0.3398200000000000  0.6601800000000000  0.4550900000000000
  0.4328099999999999  0.5671900000000000  0.8807899999999999
  0.0000000000000000  0.0000000000000000  0.0000000000000000
  0.7552700000000000  0.2447300000000000  0.3321000000000000
  0.2447300000000000  0.7552700000000000  0.6679000000000000
