Hf Te Ge 
 1.0000000000000000
     3.2690000000000001    0.0000000000000000    0.0000000000000000
    -1.6344999999999994    2.8310370449713305    0.0000000000000000
     0.0000000000000000    0.0000000000000000    8.5470000000000006
 Hf  Te  Ge 
   2   2   1
Direct
  0.6666799999999998  0.3333400000000000  0.8567700000000000
  0.3333199999999999  0.6666600000000000  0.1432300000000000
  0.6666499999999999  0.3333200000000001  0.3345500000000000
  0.3333499999999999  0.6666800000000001  0.6654500000000000
  0.0000000000000000  0.0000000000000000  0.0000000000000000
