Ni  V  C Se
 1.0000000000000000
     3.3029999999999999    0.0000000000000000    0.0000000000000000
    -1.6514999999999991    2.8604819087000011    0.0000000000000000
     0.0000000000000000    0.0000000000000000   25.8299999999999983
 Ni  V   C   Se
   3   6   3   6
Direct
  0.0000000000000000  0.0000000000000000  0.0000000000000000
  0.6666700000000000  0.3333300000000000  0.3333300000000001
  0.3333300000000000  0.6666700000000000  0.6666700000000001
  0.0000000000000000  0.0000000000000000  0.8703200000000000
  0.0000000000000000  0.0000000000000000  0.1296800000000000
  0.6666700000000000  0.3333300000000000  0.2036500000000000
  0.6666700000000000  0.3333300000000000  0.4630100000000000
  0.3333300000000000  0.6666700000000000  0.5369900000000000
  0.3333300000000000  0.6666700000000000  0.7963500000000000
  0.0000000000000000  0.0000000000000000  0.5000000000000000
  0.6666700000000000  0.3333300000000000  0.8333300000000000
  0.3333300000000000  0.6666700000000000  0.1666700000000000
  0.0000000000000000  0.0000000000000000  0.7275100000000000
  0.0000000000000000  0.0000000000000000  0.2724900000000000
  0.6666700000000000  0.3333300000000000  0.0608300000000000
  0.6666700000000000  0.3333300000000000  0.6058300000000000
  0.3333300000000000  0.6666700000000000  0.3941700000000000
  0.3333300000000000  0.6666700000000000  0.9391699999999999
