Sc  N Se 
 1.0000000000000000
     3.3029999999999999    0.0000000000000000    0.0000000000000000
    -1.6514999999999991    2.8604819087000011    0.0000000000000000
     0.0000000000000000    0.0000000000000000   25.8299999999999983
 Sc  N   Se 
   9   3   6
Direct
  0.0000000000000000  0.0000000000000000  0.0000000000000000
  0.7098699999999998  0.2901300000000000  0.3161900000000000
  0.2901299999999999  0.7098699999999999  0.6838100000000000
  0.9985399999999999  0.0014600000000000  0.8929300000000000
  0.0014600000000000  0.9985400000000000  0.1070700000000000
  0.6690400000000000  0.3309600000000000  0.1675300000000000
  0.6714500000000000  0.3285500000000000  0.4732800000000000
  0.3285500000000000  0.6714500000000000  0.5267200000000000
  0.3309600000000000  0.6690400000000000  0.8324700000000000
  0.0000000000000000  0.0000000000000000  0.5000000000000000
  0.6642399999999998  0.3357600000000000  0.8288800000000001
  0.3357599999999999  0.6642400000000001  0.1711200000000000
  0.9584099999999998  0.0415900000000000  0.7139200000000000
  0.0415900000000000  0.9584100000000000  0.2860800000000000
  0.6681199999999999  0.3318800000000000  0.0702100000000000
  0.7789799999999999  0.2210200000000000  0.6042000000000000
  0.2210200000000000  0.7789800000000000  0.3958000000000000
  0.3318800000000000  0.6681200000000000  0.9297900000000000
