Fe Cd  N  S 
 1.0000000000000000
     3.3029999999999999    0.0000000000000000    0.0000000000000000
    -1.6514999999999991    2.8604819087000011    0.0000000000000000
     0.0000000000000000    0.0000000000000000   25.8299999999999983
 Fe  Cd  N   S  
   3   6   3   6
Direct
  0.0000000000000000  0.0000000000000000  0.0000000000000000
  0.6666700000000000  0.3333300000000000  0.3333300000000001
  0.3333300000000000  0.6666700000000000  0.6666700000000001
  0.0000000000000000  0.0000000000000000  0.8861200000000001
  0.0000000000000000  0.0000000000000000  0.1138800000000000
  0.6666700000000000  0.3333300000000000  0.2194000000000000
  0.6666600000000000  0.3333400000000000  0.4472400000000000
  0.3333400000000000  0.6666600000000000  0.5527600000000000
  0.3333300000000000  0.6666700000000000  0.7806000000000000
  0.0000000000000000  0.0000000000000000  0.5000000000000000
  0.6666700000000000  0.3333300000000000  0.8334000000000000
  0.3333300000000000  0.6666700000000000  0.1666000000000000
  0.0000100000000001  0.9999900000000002  0.7079800000000001
  0.9999899999999998  0.0000100000000000  0.2920200000000000
  0.6666800000000001  0.3333200000000000  0.0413100000000000
  0.6666499999999999  0.3333500000000000  0.6253500000000000
  0.3333499999999999  0.6666500000000000  0.3746500000000000
  0.3333200000000000  0.6666800000000001  0.9586900000000000
