Mo  S Si 
 1.0000000000000000
     3.2709999999999999    0.0000000000000000    0.0000000000000000
    -1.6354999999999993    2.8327690957788989    0.0000000000000000
     0.0000000000000000    0.0000000000000000   25.4780000000000015
 Mo  S   Si 
   6   6   3
Direct
  0.9999700000000000  0.0000300000000000  0.6234700000000000
  0.0000300000000000  0.9999700000000000  0.3765299999999999
  0.6667299999999999  0.3332700000000000  0.9568100000000000
  0.6667000000000000  0.3333000000000000  0.7098499999999999
  0.3332999999999999  0.6667000000000000  0.2901500000000000
  0.3332700000000000  0.6667299999999999  0.0431900000000000
  0.9999600000000000  0.0000400000000000  0.7687099999999999
  0.0000399999999999  0.9999599999999998  0.2312899999999999
  0.6667400000000000  0.3332600000000000  0.1020400000000000
  0.6667100000000000  0.3332900000000000  0.5646299999999999
  0.3332900000000000  0.6667100000000000  0.4353700000000000
  0.3332600000000000  0.6667400000000000  0.8979600000000000
  0.0000000000000000  0.0000000000000000  0.0000000000000000
  0.6666700000000000  0.3333300000000000  0.3333300000000000
  0.3333300000000000  0.6666700000000000  0.6666699999999999
