Mo Se As 
 1.0000000000000000
     3.2709999999999999    0.0000000000000000    0.0000000000000000
    -1.6354999999999993    2.8327690957788989    0.0000000000000000
     0.0000000000000000    0.0000000000000000   25.4780000000000015
 Mo  Se  As 
   6   6   3
Direct
  0.8389399999999999  0.1610600000000000  0.5907300000000000
  0.1610599999999999  0.8389399999999998  0.4092700000000000
  0.6770100000000000  0.3229899999999999  0.9544700000000000
  0.8437300000000000  0.1562700000000000  0.7442199999999999
  0.1562699999999999  0.8437300000000000  0.2557800000000000
  0.3229899999999999  0.6770099999999999  0.0455300000000000
  0.1685699999999999  0.8314299999999998  0.7785100000000000
  0.8314299999999999  0.1685700000000000  0.2214900000000000
  0.7303900000000000  0.2696100000000000  0.1032700000000000
  0.5106200000000000  0.4893799999999999  0.5592800000000000
  0.4893800000000000  0.5106200000000000  0.4407200000000000
  0.2696100000000000  0.7303900000000000  0.8967299999999999
  0.0000000000000000  0.0000000000000000  0.0000000000000000
  0.6549000000000000  0.3451000000000000  0.3293400000000000
  0.3451000000000000  0.6548999999999999  0.6706600000000000
