Na  W  C Se
 1.0000000000000000
     3.3029999999999999    0.0000000000000000    0.0000000000000000
    -1.6514999999999993    2.8604819087000011    0.0000000000000000
     0.0000000000000000    0.0000000000000000   25.8299999999999983
 Na  W   C   Se
   3   6   3   6
Direct
  0.0000000000000000  0.0000000000000000  0.0000000000000000
  0.6666700000000000  0.3333300000000000  0.3333300000000001
  0.3333300000000000  0.6666700000000000  0.6666700000000001
  0.0000000000000000  0.0000000000000000  0.8619800000000000
  0.0000000000000000  0.0000000000000000  0.1380200000000000
  0.6666700000000000  0.3333300000000000  0.1952700000000000
  0.6666700000000000  0.3333300000000000  0.4713800000000001
  0.3333300000000000  0.6666700000000000  0.5286200000000000
  0.3333300000000000  0.6666700000000000  0.8047299999999999
  0.0000000000000000  0.0000000000000000  0.5000000000000000
  0.6666700000000000  0.3333300000000000  0.8333000000000000
  0.3333300000000000  0.6666700000000000  0.1667000000000000
  0.0000000000000000  0.0000000000000000  0.7438700000000000
  0.0000000000000000  0.0000000000000000  0.2561300000000000
  0.6666700000000000  0.3333300000000000  0.0772200000000000
  0.6666700000000000  0.3333300000000000  0.5894600000000000
  0.3333300000000000  0.6666700000000000  0.4105400000000000
  0.3333300000000000  0.6666700000000000  0.9227800000000002
