Cr Zr  C  S
 1.0000000000000000
     3.3029999999999999    0.0000000000000000    0.0000000000000000
    -1.6514999999999991    2.8604819087000011    0.0000000000000000
     0.0000000000000000    0.0000000000000000   25.8299999999999983
 Cr  Zr  C   S
   3   6   3   6
Direct
  0.0000000000000000  0.0000000000000000  0.0000000000000000
  0.6666700000000000  0.3333300000000000  0.3333300000000001
  0.3333300000000000  0.6666700000000000  0.6666700000000001
  0.0000000000000000  0.0000000000000000  0.8809399999999999
  0.0000000000000000  0.0000000000000000  0.1190600000000000
  0.6666700000000000  0.3333300000000000  0.2142700000000000
  0.6666700000000000  0.3333300000000000  0.4524000000000000
  0.3333300000000000  0.6666700000000000  0.5476000000000000
  0.3333300000000000  0.6666700000000000  0.7857300000000000
  0.0000000000000000  0.0000000000000000  0.5000000000000000
  0.6666700000000000  0.3333300000000000  0.8333300000000000
  0.3333300000000000  0.6666700000000000  0.1666700000000000
  0.0000000000000000  0.0000000000000000  0.7176000000000000
  0.0000000000000000  0.0000000000000000  0.2824000000000000
  0.6666700000000000  0.3333300000000000  0.0509300000000000
  0.6666600000000000  0.3333400000000000  0.6157300000000000
  0.3333400000000000  0.6666600000000000  0.3842700000000000
  0.3333300000000000  0.6666700000000000  0.9490700000000000
