Cd Se As 
 1.0000000000000000
     3.2690000000000001    0.0000000000000000    0.0000000000000000
    -1.6344999999999994    2.8310370449713305    0.0000000000000000
     0.0000000000000000    0.0000000000000000    8.5470000000000006
 Cd  Se  As 
   2   2   1
Direct
  0.6950899999999998  0.3475500000000000  0.7769300000000000
  0.3049100000000000  0.6524500000000000  0.2230700000000000
  0.6210599999999999  0.3105300000000000  0.4485500000000000
  0.3789399999999999  0.6894700000000000  0.5514500000000000
  0.0000000000000000  0.0000000000000000  0.0000000000000000
