 Y Se  P 
 1.0000000000000000
     3.2709999999999999    0.0000000000000000    0.0000000000000000
    -1.6354999999999993    2.8327690957788989    0.0000000000000000
     0.0000000000000000    0.0000000000000000   25.4780000000000015
 Y   Se  P  
   6   6   3
Direct
  0.0817200000000000  0.9182800000000000  0.5881200000000000
  0.9182799999999999  0.0817200000000000  0.4118800000000000
  0.7467400000000000  0.2532599999999999  0.9214800000000000
  0.5871299999999999  0.4128700000000000  0.7454999999999999
  0.4128700000000000  0.5871299999999999  0.2545000000000000
  0.2532600000000000  0.7467400000000000  0.0785200000000000
  0.9233099999999999  0.0766900000000000  0.7805100000000000
  0.0766900000000000  0.9233100000000000  0.2194900000000000
  0.5894599999999998  0.4105399999999999  0.1134900000000000
  0.7455700000000000  0.2544300000000000  0.5531000000000000
  0.2544300000000000  0.7455700000000000  0.4469000000000000
  0.4105400000000000  0.5894600000000000  0.8865100000000000
  0.9999999999999997  0.9999999999999998  0.0000000000000000
  0.6657500000000000  0.3342500000000000  0.3331400000000000
  0.3342499999999999  0.6657499999999998  0.6668600000000000
