Ca Ti  C Se
 1.0000000000000000
     3.3029999999999999    0.0000000000000000    0.0000000000000000
    -1.6514999999999991    2.8604819087000011    0.0000000000000000
     0.0000000000000000    0.0000000000000000   25.8299999999999983
 Ca  Ti  C   Se
   3   6   3   6
Direct
  0.0000000000000000  0.0000000000000000  0.0000000000000000
  0.6666700000000000  0.3333300000000000  0.3333300000000001
  0.3333300000000000  0.6666700000000000  0.6666700000000001
  0.0000000000000000  0.0000000000000000  0.8710300000000000
  0.0000000000000000  0.0000000000000000  0.1289700000000000
  0.6666700000000000  0.3333300000000000  0.2043600000000001
  0.6666700000000000  0.3333300000000000  0.4623100000000000
  0.3333300000000000  0.6666700000000000  0.5376900000000000
  0.3333300000000000  0.6666700000000000  0.7956400000000000
  0.0000000000000000  0.0000000000000000  0.5000000000000000
  0.6666700000000000  0.3333300000000000  0.8333300000000000
  0.3333300000000000  0.6666700000000000  0.1666700000000000
  0.0000000000000000  0.0000000000000000  0.7351100000000002
  0.0000000000000000  0.0000000000000000  0.2648900000000000
  0.6666700000000000  0.3333300000000000  0.0684400000000000
  0.6666700000000000  0.3333300000000000  0.5982200000000000
  0.3333300000000000  0.6666700000000000  0.4017800000000001
  0.3333300000000000  0.6666700000000000  0.9315600000000001
