Au Se Si 
 1.0000000000000000
     3.2690000000000001    0.0000000000000000    0.0000000000000000
    -1.6344999999999994    2.8310370449713305    0.0000000000000000
     0.0000000000000000    0.0000000000000000    8.5470000000000006
 Au  Se  Si 
   2   2   1
Direct
  0.7072499999999999  0.3536300000000001  0.8053900000000001
  0.2927500000000000  0.6463700000000000  0.1946100000000000
  0.6238500000000000  0.3119200000000000  0.4413900000000000
  0.3761499999999999  0.6880800000000000  0.5586100000000001
  0.0000000000000000  0.0000000000000000  0.0000000000000000
