Cu Te Sn 
 1.0000000000000000
     3.2709999999999999    0.0000000000000000    0.0000000000000000
    -1.6354999999999993    2.8327690957788989    0.0000000000000000
     0.0000000000000000    0.0000000000000000   25.4780000000000015
 Cu  Te  Sn 
   6   6   3
Direct
  0.9862800000000000  0.0137200000000000  0.6069400000000000
  0.0137199999999999  0.9862799999999999  0.3930599999999999
  0.6979799999999999  0.3020200000000000  0.9343300000000000
  0.6481799999999999  0.3518200000000000  0.7366799999999999
  0.3518200000000000  0.6481799999999999  0.2633200000000000
  0.3020200000000000  0.6979799999999999  0.0656700000000000
  0.0891700000000000  0.9108300000000000  0.8001899999999998
  0.9108300000000000  0.0891700000000000  0.1998100000000000
  0.6270600000000000  0.3729399999999999  0.1289600000000000
  0.6989300000000001  0.3010699999999999  0.5395200000000000
  0.3010700000000000  0.6989300000000001  0.4604799999999999
  0.3729399999999999  0.6270599999999998  0.8710399999999999
  0.0000000000000000  0.0000000000000000  0.0000000000000000
  0.7148300000000000  0.2851700000000000  0.3271400000000000
  0.2851700000000000  0.7148300000000000  0.6728600000000000
