Sc Ru  C  S
 1.0000000000000000
     3.3029999999999999    0.0000000000000000    0.0000000000000000
    -1.6514999999999991    2.8604819087000011    0.0000000000000000
     0.0000000000000000    0.0000000000000000   25.8299999999999983
 Sc  Ru  C   S
   3   6   3   6
Direct
  0.0000000000000000  0.0000000000000000  0.0000000000000000
  0.6666700000000000  0.3333300000000000  0.3333300000000001
  0.3333300000000000  0.6666700000000000  0.6666700000000001
  0.0000000000000000  0.0000000000000000  0.8688900000000001
  0.0000000000000000  0.0000000000000000  0.1311100000000000
  0.6666700000000000  0.3333300000000000  0.2022200000000000
  0.6666700000000000  0.3333300000000000  0.4644500000000000
  0.3333300000000000  0.6666700000000000  0.5355500000000000
  0.3333300000000000  0.6666700000000000  0.7977800000000000
  0.0000000000000000  0.0000000000000000  0.5000000000000000
  0.6666700000000000  0.3333300000000000  0.8333300000000000
  0.3333300000000000  0.6666700000000000  0.1666700000000000
  0.0000000000000000  0.0000000000000000  0.7292900000000000
  0.0000000000000000  0.0000000000000000  0.2707100000000000
  0.6666700000000000  0.3333300000000000  0.0626200000000000
  0.6666700000000000  0.3333300000000000  0.6040500000000000
  0.3333300000000000  0.6666700000000000  0.3959500000000000
  0.3333300000000000  0.6666700000000000  0.9373800000000000
