Co Ga Te 
 1.0000000000000000
     3.3435999999999999    0.0000000000000000    0.0000000000000000
    -1.6717999999999993    2.8956425400936490    0.0000000000000000
     0.0000000000000000    0.0000000000000000   11.5808999999999997
 Co  Ga  Te 
   4   2   2
Direct
  0.3340500000000000  0.6659500000000000  0.3552700000000000
  0.6659500000000000  0.3340500000000000  0.6447300000000000
  0.6659500000000000  0.3340500000000000  0.8552600000000000
  0.3340500000000000  0.6659500000000000  0.1447400000000000
  0.0000000000000000  0.0000000000000000  0.0000000000000000
  0.0000000000000000  0.0000000000000000  0.5000000000000000
  0.3327800000000000  0.6672200000000000  0.7500000000000000
  0.6672199999999998  0.3327800000000000  0.2500000000000000
