Ru Se Ge 
 1.0000000000000000
     3.2709999999999999    0.0000000000000000    0.0000000000000000
    -1.6354999999999993    2.8327690957788989    0.0000000000000000
     0.0000000000000000    0.0000000000000000   25.4780000000000015
 Ru  Se  Ge 
   6   6   3
Direct
  0.8637499999999999  0.1362500000000000  0.6211900000000000
  0.1362500000000000  0.8637500000000000  0.3788100000000000
  0.6922000000000000  0.3078000000000000  0.9514800000000000
  0.4821700000000000  0.5178299999999999  0.7218999999999999
  0.5178300000000000  0.4821700000000000  0.2781000000000000
  0.3078000000000000  0.6922000000000000  0.0485200000000000
  0.8225900000000000  0.1774100000000000  0.7702100000000000
  0.1774100000000000  0.8225899999999999  0.2297900000000000
  0.8380900000000000  0.1619100000000000  0.1078400000000000
  0.3482400000000000  0.6517600000000000  0.5575300000000000
  0.6517599999999999  0.3482400000000000  0.4424700000000000
  0.1619099999999999  0.8380899999999998  0.8921600000000000
 -0.0000000000000001  0.9999999999999998  0.0000000000000000
  0.8176099999999997  0.1823900000000000  0.3430000000000000
  0.1823899999999999  0.8176099999999997  0.6570000000000000
