 V Se As 
 1.0000000000000000
     3.2690000000000001    0.0000000000000000    0.0000000000000000
    -1.6344999999999994    2.8310370449713305    0.0000000000000000
     0.0000000000000000    0.0000000000000000    8.5470000000000006
 V   Se  As 
   2   2   1
Direct
  0.6666599999999998  0.3333300000000000  0.9048200000000000
  0.3333399999999999  0.6666700000000000  0.0951800000000000
  0.6665500000000000  0.3332700000000000  0.3148900000000000
  0.3334500000000000  0.6667300000000002  0.6851100000000000
  0.0000000000000000  0.0000000000000000  0.0000000000000000
