Mg  Y  C Te
 1.0000000000000000
     3.3029999999999999    0.0000000000000000    0.0000000000000000
    -1.6514999999999993    2.8604819087000011    0.0000000000000000
     0.0000000000000000    0.0000000000000000   25.8299999999999983
 Mg  Y   C   Te
   3   6   3   6
Direct
  0.0000000000000000  0.0000000000000000  0.0000000000000000
  0.6687699999999999  0.3312300000000000  0.3341300000000000
  0.3312300000000000  0.6687700000000000  0.6658700000000001
  0.8458300000000000  0.1541700000000000  0.8597000000000000
  0.1541700000000000  0.8458300000000000  0.1403000000000000
  0.8158299999999998  0.1841700000000000  0.1932400000000000
  0.6666299999999999  0.3333700000000000  0.4735000000000001
  0.3333700000000000  0.6666299999999999  0.5265000000000000
  0.1841700000000001  0.8158300000000001  0.8067600000000000
  0.0000000000000000  0.0000000000000000  0.5000000000000000
  0.5130200000000000  0.4869800000000000  0.8623200000000000
  0.4869800000000000  0.5130200000000000  0.1376800000000000
  0.8416499999999998  0.1583500000000000  0.7506800000000000
  0.1583499999999999  0.8416500000000001  0.2493200000000000
  0.6771500000000000  0.3228500000000000  0.0747000000000000
  0.0002600000000000  0.9997400000000000  0.5904199999999999
  0.9997399999999997  0.0002600000000000  0.4095800000000001
  0.3228499999999999  0.6771500000000000  0.9253000000000001
