Fe Ag  C Te
 1.0000000000000000
     3.3029999999999999    0.0000000000000000    0.0000000000000000
    -1.6514999999999993    2.8604819087000011    0.0000000000000000
     0.0000000000000000    0.0000000000000000   25.8299999999999983
 Fe  Ag  C   Te
   3   6   3   6
Direct
  0.0000000000000000  0.0000000000000000  0.0000000000000000
  0.6666700000000000  0.3333300000000000  0.3333300000000001
  0.3333300000000000  0.6666700000000000  0.6666700000000001
  0.0000000000000000  0.0000000000000000  0.8777900000000000
  0.0000000000000000  0.0000000000000000  0.1222100000000000
  0.6666700000000000  0.3333300000000000  0.2111200000000000
  0.6666700000000000  0.3333300000000000  0.4555500000000000
  0.3333300000000000  0.6666700000000000  0.5444500000000000
  0.3333300000000000  0.6666700000000000  0.7888800000000000
  0.0000000000000000  0.0000000000000000  0.5000000000000000
  0.6666700000000000  0.3333300000000000  0.8333300000000000
  0.3333300000000000  0.6666700000000000  0.1666700000000000
  0.0000000000000000  0.0000000000000000  0.7202900000000000
  0.0000000000000000  0.0000000000000000  0.2797100000000000
  0.6666700000000000  0.3333300000000000  0.0536200000000000
  0.6666600000000000  0.3333400000000000  0.6130500000000000
  0.3333400000000000  0.6666600000000000  0.3869500000000000
  0.3333300000000000  0.6666700000000000  0.9463800000000001
