Ti Hf  C  S
 1.0000000000000000
     3.3029999999999999    0.0000000000000000    0.0000000000000000
    -1.6514999999999991    2.8604819087000011    0.0000000000000000
     0.0000000000000000    0.0000000000000000   25.8299999999999983
 Ti  Hf  C   S
   3   6   3   6
Direct
  0.0000000000000000  0.0000000000000000  0.0000000000000000
  0.6666700000000000  0.3333300000000000  0.3333300000000001
  0.3333300000000000  0.6666700000000000  0.6666700000000001
  0.0000000000000000  0.0000000000000000  0.8786300000000000
  0.0000000000000000  0.0000000000000000  0.1213700000000000
  0.6666700000000000  0.3333300000000000  0.2119700000000000
  0.6666700000000000  0.3333300000000000  0.4547000000000000
  0.3333300000000000  0.6666700000000000  0.5453000000000000
  0.3333300000000000  0.6666700000000000  0.7880300000000000
  0.0000000000000000  0.0000000000000000  0.5000000000000000
  0.6666700000000000  0.3333300000000000  0.8333300000000000
  0.3333300000000000  0.6666700000000000  0.1666700000000000
  0.0000000000000000  0.0000000000000000  0.7224100000000000
  0.0000000000000000  0.0000000000000000  0.2775900000000000
  0.6666700000000000  0.3333300000000000  0.0557400000000000
  0.6666700000000000  0.3333300000000000  0.6109300000000000
  0.3333300000000000  0.6666700000000000  0.3890700000000000
  0.3333300000000000  0.6666700000000000  0.9442600000000001
