Ag Zn  C  S
 1.0000000000000000
     3.3029999999999999    0.0000000000000000    0.0000000000000000
    -1.6514999999999991    2.8604819087000011    0.0000000000000000
     0.0000000000000000    0.0000000000000000   25.8299999999999983
 Ag  Zn  C   S
   3   6   3   6
Direct
  0.0000000000000000  0.0000000000000000  0.0000000000000000
  0.6666700000000000  0.3333300000000000  0.3333300000000001
  0.3333300000000000  0.6666700000000000  0.6666700000000001
  0.0000000000000000  0.0000000000000000  0.8729800000000000
  0.0000000000000000  0.0000000000000000  0.1270200000000000
  0.6666700000000000  0.3333300000000000  0.2063100000000000
  0.6666700000000000  0.3333300000000000  0.4603500000000000
  0.3333300000000000  0.6666700000000000  0.5396500000000000
  0.3333300000000000  0.6666700000000000  0.7936900000000001
  0.0000000000000000  0.0000000000000000  0.5000000000000000
  0.6666700000000000  0.3333300000000000  0.8333400000000000
  0.3333300000000000  0.6666700000000000  0.1666600000000000
  0.0000000000000000  0.0000000000000000  0.7347300000000001
  0.0000000000000000  0.0000000000000000  0.2652700000000000
  0.6666700000000000  0.3333300000000000  0.0680500000000000
  0.6666700000000000  0.3333300000000000  0.5986100000000000
  0.3333300000000000  0.6666700000000000  0.4013900000000000
  0.3333300000000000  0.6666700000000000  0.9319499999999999
