Mn Cr  S  C 
 1.0000000000000000
     3.3121000000000000    0.0000000000000000    0.0000000000000000
    -1.6560499999999991    2.8683627398744393    0.0000000000000000
     0.0000000000000000    0.0000000000000000    9.0113000000000003
 Mn  Cr  S   C  
   2   2   2   1
Direct
  0.6666600000000003  0.3333300000000000  0.5964100000000000
  0.3333400000000000  0.6666700000000000  0.4035900000000000
  0.6666600000000003  0.3333300000000000  0.9005900000000001
  0.3333400000000000  0.6666700000000000  0.0994100000000000
  0.6666600000000003  0.3333300000000000  0.2919700000000000
  0.3333400000000000  0.6666700000000000  0.7080300000000002
  0.0000000000000000  0.0000000000000000  0.0000000000000000
