Cd Te  P 
 1.0000000000000000
     3.2709999999999999    0.0000000000000000    0.0000000000000000
    -1.6354999999999993    2.8327690957788989    0.0000000000000000
     0.0000000000000000    0.0000000000000000   25.4780000000000015
 Cd  Te  P  
   6   6   3
Direct
  0.9999999999999997  0.9999999999999998  0.6114400000000000
  0.0000000000000000  0.0000000000000000  0.3885600000000000
  0.6666700000000000  0.3333300000000000  0.9447700000000000
  0.6666700000000000  0.3333300000000000  0.7218999999999999
  0.3333300000000000  0.6666700000000000  0.2781000000000000
  0.3333300000000000  0.6666700000000000  0.0552300000000000
  0.9999999999999997  0.9999999999999998  0.7933300000000000
  0.0000000000000000  0.0000000000000000  0.2066700000000000
  0.6666700000000000  0.3333300000000000  0.1266700000000000
  0.6666700000000000  0.3333300000000000  0.5400000000000000
  0.3333300000000000  0.6666700000000000  0.4600000000000000
  0.3333300000000000  0.6666700000000000  0.8733300000000001
  0.0000000000000000  0.0000000000000000  0.0000000000000000
  0.6666600000000000  0.3333400000000000  0.3333300000000000
  0.3333400000000000  0.6666600000000000  0.6666699999999999
