Ag Mn  C  S
 1.0000000000000000
     3.3029999999999999    0.0000000000000000    0.0000000000000000
    -1.6514999999999991    2.8604819087000011    0.0000000000000000
     0.0000000000000000    0.0000000000000000   25.8299999999999983
 Ag  Mn  C   S
   3   6   3   6
Direct
  0.0000000000000000  0.0000000000000000  0.0000000000000000
  0.6666600000000000  0.3333400000000000  0.3333300000000001
  0.3333400000000000  0.6666600000000000  0.6666700000000001
  0.0000000000000000  0.0000000000000000  0.8662500000000000
  0.0000000000000000  0.0000000000000000  0.1337500000000000
  0.6666700000000000  0.3333300000000000  0.1995900000000000
  0.6666600000000000  0.3333400000000000  0.4670800000000001
  0.3333400000000000  0.6666600000000000  0.5329199999999999
  0.3333300000000000  0.6666700000000000  0.8004100000000000
  0.0000000000000000  0.0000000000000000  0.5000000000000000
  0.6666700000000000  0.3333300000000000  0.8333400000000000
  0.3333300000000000  0.6666700000000000  0.1666600000000000
  0.0000000000000000  0.0000000000000000  0.7444900000000000
  0.0000000000000000  0.0000000000000000  0.2555100000000000
  0.6666700000000000  0.3333300000000000  0.0778200000000000
  0.6666600000000000  0.3333400000000000  0.5888500000000000
  0.3333400000000000  0.6666600000000000  0.4111500000000001
  0.3333300000000000  0.6666700000000000  0.9221800000000000
