Cu Zn  C  S
 1.0000000000000000
     3.3029999999999999    0.0000000000000000    0.0000000000000000
    -1.6514999999999991    2.8604819087000011    0.0000000000000000
     0.0000000000000000    0.0000000000000000   25.8299999999999983
 Cu  Zn  C   S
   3   6   3   6
Direct
  0.0000000000000000  0.0000000000000000  0.0000000000000000
  0.6666700000000000  0.3333300000000000  0.3333300000000001
  0.3333300000000000  0.6666700000000000  0.6666700000000001
  0.0000000000000000  0.0000000000000000  0.8740200000000000
  0.0000000000000000  0.0000000000000000  0.1259800000000000
  0.6666700000000000  0.3333300000000000  0.2073500000000000
  0.6666700000000000  0.3333300000000000  0.4593100000000000
  0.3333300000000000  0.6666700000000000  0.5406900000000000
  0.3333300000000000  0.6666700000000000  0.7926500000000001
  0.0000000000000000  0.0000000000000000  0.5000000000000000
  0.6666700000000000  0.3333300000000000  0.8333300000000000
  0.3333300000000000  0.6666700000000000  0.1666700000000000
  0.0000000000000000  0.0000000000000000  0.7222100000000000
  0.0000000000000000  0.0000000000000000  0.2777900000000000
  0.6666700000000000  0.3333300000000000  0.0555500000000000
  0.6666700000000000  0.3333300000000000  0.6111200000000000
  0.3333300000000000  0.6666700000000000  0.3888800000000000
  0.3333300000000000  0.6666700000000000  0.9444500000000002
