Mg  Y  C  S
 1.0000000000000000
     3.3029999999999999    0.0000000000000000    0.0000000000000000
    -1.6514999999999991    2.8604819087000011    0.0000000000000000
     0.0000000000000000    0.0000000000000000   25.8299999999999983
 Mg  Y   C   S
   3   6   3   6
Direct
  0.0000000000000000  0.0000000000000000  0.0000000000000000
  0.6666700000000000  0.3333300000000000  0.3333300000000001
  0.3333300000000000  0.6666700000000000  0.6666700000000001
  0.0000000000000000  0.0000000000000000  0.8828900000000000
  0.0000000000000000  0.0000000000000000  0.1171100000000000
  0.6666700000000000  0.3333300000000000  0.2162300000000000
  0.6666700000000000  0.3333300000000000  0.4504400000000001
  0.3333300000000000  0.6666700000000000  0.5495600000000000
  0.3333300000000000  0.6666700000000000  0.7837700000000002
  0.0000000000000000  0.0000000000000000  0.5000000000000000
  0.6666700000000000  0.3333300000000000  0.8333300000000000
  0.3333300000000000  0.6666700000000000  0.1666700000000000
  0.0000000000000000  0.0000000000000000  0.7176600000000001
  0.0000000000000000  0.0000000000000000  0.2823400000000000
  0.6666700000000000  0.3333300000000000  0.0509900000000000
  0.6666700000000000  0.3333300000000000  0.6156800000000000
  0.3333300000000000  0.6666700000000000  0.3843200000000001
  0.3333300000000000  0.6666700000000000  0.9490100000000000
