Fe Sb Te 
 1.0000000000000000
     3.3435999999999999    0.0000000000000000    0.0000000000000000
    -1.6717999999999993    2.8956425400936490    0.0000000000000000
     0.0000000000000000    0.0000000000000000   11.5808999999999997
 Fe  Sb  Te 
   4   2   2
Direct
  0.3328499999999999  0.6671499999999999  0.3514600000000000
  0.6671500000000000  0.3328500000000000  0.6485400000000000
  0.6671500000000000  0.3328500000000000  0.8514599999999999
  0.3328499999999999  0.6671499999999999  0.1485400000000000
  0.0000000000000000  0.0000000000000000  0.0000000000000000
  0.0000000000000000  0.0000000000000000  0.5000000000000000
  0.3339299999999999  0.6660700000000001  0.7500000000000000
  0.6660700000000001  0.3339300000000000  0.2500000000000000
