Ir Se  C 
 1.0000000000000000
     3.2709999999999999    0.0000000000000000    0.0000000000000000
    -1.6354999999999991    2.8327690957788989    0.0000000000000000
     0.0000000000000000    0.0000000000000000   25.4780000000000015
 Ir  Se  C  
   6   6   3
Direct
  0.9999999999999997  0.9999999999999998  0.6268800000000000
  0.0000000000000000  0.0000000000000000  0.3731200000000000
  0.6666700000000000  0.3333300000000000  0.9602199999999999
  0.6666700000000000  0.3333300000000000  0.7064500000000000
  0.3333300000000000  0.6666700000000000  0.2935500000000000
  0.3333300000000000  0.6666700000000000  0.0397800000000000
  0.0000000000000000  0.0000000000000000  0.7735800000000000
  0.9999999999999997  0.9999999999999998  0.2264200000000000
  0.6666700000000000  0.3333300000000000  0.1069200000000000
  0.6666700000000000  0.3333300000000000  0.5597500000000000
  0.3333300000000000  0.6666700000000000  0.4402499999999999
  0.3333300000000000  0.6666700000000000  0.8930800000000000
  0.0000000000000000  0.0000000000000000  0.0000000000000000
  0.6666700000000000  0.3333300000000000  0.3333300000000000
  0.3333300000000000  0.6666700000000000  0.6666699999999999
