Ti Al  S 
 1.0000000000000000
     3.3435999999999999    0.0000000000000000    0.0000000000000000
    -1.6717999999999993    2.8956425400936490    0.0000000000000000
     0.0000000000000000    0.0000000000000000   11.5808999999999997
 Ti  Al  S  
   4   2   2
Direct
  0.3331900000000000  0.6668100000000000  0.3055900000000000
  0.6668100000000000  0.3331900000000000  0.6944100000000001
  0.6669000000000000  0.3331000000000000  0.8850700000000000
  0.3331000000000000  0.6669000000000000  0.1149300000000000
  0.0000000000000000  0.0000000000000000  0.0000000000000000
  0.0000000000000000  0.0000000000000000  0.5000000000000000
  0.3335200000000000  0.6664800000000000  0.7523200000000000
  0.6664800000000000  0.3335200000000000  0.2476800000000000
