 V  W  N  S 
 1.0000000000000000
     3.3029999999999999    0.0000000000000000    0.0000000000000000
    -1.6514999999999991    2.8604819087000011    0.0000000000000000
     0.0000000000000000    0.0000000000000000   25.8299999999999983
 V   W   N   S  
   3   6   3   6
Direct
  0.0000000000000000  0.0000000000000000  0.0000000000000000
  0.6665600000000000  0.3334400000000000  0.3839900000000001
  0.3334400000000000  0.6665600000000000  0.6160099999999999
  0.9999699999999998  0.0000300000000000  0.9096300000000000
  0.0000300000000000  0.9999700000000000  0.0903700000000000
  0.5034800000000000  0.4965200000000000  0.2070900000000000
  0.6666400000000000  0.3333600000000000  0.4683500000000000
  0.3333600000000000  0.6666400000000000  0.5316500000000000
  0.4965200000000000  0.5034800000000000  0.7929100000000000
  0.0000000000000000  0.0000000000000000  0.5000000000000000
  0.6674200000000000  0.3325800000000000  0.9297000000000000
  0.3325800000000000  0.6674200000000000  0.0703000000000000
  0.1614300000000000  0.8385700000000000  0.7623400000000000
  0.8385700000000000  0.1614300000000000  0.2376600000000000
  0.6664200000000000  0.3335800000000000  0.0423200000000000
  0.6667600000000000  0.3332400000000000  0.5890800000000000
  0.3332400000000000  0.6667600000000000  0.4109200000000000
  0.3335800000000000  0.6664200000000000  0.9576800000000000
