Ni Rh  C  S
 1.0000000000000000
     3.3029999999999999    0.0000000000000000    0.0000000000000000
    -1.6514999999999991    2.8604819087000011    0.0000000000000000
     0.0000000000000000    0.0000000000000000   25.8299999999999983
 Ni  Rh  C   S
   3   6   3   6
Direct
  0.0000000000000000  0.0000000000000000  0.0000000000000000
  0.6666700000000000  0.3333300000000000  0.3333300000000001
  0.3333300000000000  0.6666700000000000  0.6666700000000001
  0.0000000000000000  0.0000000000000000  0.8717000000000000
  0.0000000000000000  0.0000000000000000  0.1283000000000000
  0.6666700000000000  0.3333300000000000  0.2050300000000000
  0.6666700000000000  0.3333300000000000  0.4616400000000000
  0.3333300000000000  0.6666700000000000  0.5383599999999999
  0.3333300000000000  0.6666700000000000  0.7949700000000001
  0.0000000000000000  0.0000000000000000  0.5000000000000000
  0.6666700000000000  0.3333300000000000  0.8333300000000000
  0.3333300000000000  0.6666700000000000  0.1666700000000000
  0.0000100000000001  0.9999900000000002  0.7175100000000000
  0.9999899999999998  0.0000100000000000  0.2824900000000000
  0.6666700000000000  0.3333300000000000  0.0508400000000000
  0.6666600000000000  0.3333400000000000  0.6158300000000000
  0.3333400000000000  0.6666600000000000  0.3841700000000000
  0.3333300000000000  0.6666700000000000  0.9491600000000000
