Cu Ni  S  C 
 1.0000000000000000
     3.3121000000000000    0.0000000000000000    0.0000000000000000
    -1.6560499999999991    2.8683627398744393    0.0000000000000000
     0.0000000000000000    0.0000000000000000    9.0113000000000003
 Cu  Ni  S   C  
   2   2   2   1
Direct
  0.6666500000000000  0.3333200000000000  0.5882200000000000
  0.3333500000000000  0.6666800000000001  0.4117800000000000
  0.6667100000000000  0.3333600000000000  0.9099100000000000
  0.3332900000000001  0.6666400000000000  0.0900900000000000
  0.6666800000000001  0.3333400000000000  0.2789500000000000
  0.3333200000000001  0.6666600000000000  0.7210500000000001
  0.0000000000000000  0.0000000000000000  0.0000000000000000
