Rh  S Al 
 1.0000000000000000
     3.2709999999999999    0.0000000000000000    0.0000000000000000
    -1.6354999999999993    2.8327690957788989    0.0000000000000000
     0.0000000000000000    0.0000000000000000   25.4780000000000015
 Rh  S   Al 
   6   6   3
Direct
  0.9999800000000000  0.0000200000000000  0.6150800000000000
  0.0000199999999999  0.9999799999999998  0.3849200000000000
  0.6666900000000000  0.3333099999999999  0.9484100000000000
  0.6666900000000000  0.3333099999999999  0.7182499999999999
  0.3333100000000000  0.6666900000000000  0.2817500000000000
  0.3333100000000000  0.6666900000000000  0.0515900000000000
  0.9999900000000000  0.0000100000000000  0.7752000000000000
  0.0000100000000000  0.9999899999999999  0.2248000000000000
  0.6666900000000000  0.3333099999999999  0.1085300000000000
  0.6666800000000001  0.3333199999999999  0.5581400000000000
  0.3333199999999999  0.6666800000000001  0.4418599999999999
  0.3333100000000000  0.6666900000000000  0.8914700000000000
  0.0000000000000000  0.0000000000000000  0.0000000000000000
  0.6666700000000000  0.3333300000000000  0.3333300000000000
  0.3333300000000000  0.6666700000000000  0.6666699999999999
