Ni  N Se 
 1.0000000000000000
     3.3029999999999999    0.0000000000000000    0.0000000000000000
    -1.6514999999999991    2.8604819087000011    0.0000000000000000
     0.0000000000000000    0.0000000000000000   25.8299999999999983
 Ni  N   Se 
   9   3   6
Direct
  0.0000000000000000  0.0000000000000000  0.0000000000000000
  0.6666700000000000  0.3333300000000000  0.3333200000000000
  0.3333300000000000  0.6666700000000000  0.6666800000000002
  0.0000000000000000  0.0000000000000000  0.8785400000000002
  0.0000000000000000  0.0000000000000000  0.1214600000000000
  0.6666700000000000  0.3333300000000000  0.2118600000000000
  0.6666700000000000  0.3333300000000000  0.4548100000000000
  0.3333300000000000  0.6666700000000000  0.5451900000000000
  0.3333300000000000  0.6666700000000000  0.7881400000000000
  0.0000000000000000  0.0000000000000000  0.5000000000000000
  0.6666800000000001  0.3333200000000000  0.8335800000000000
  0.3333200000000000  0.6666800000000001  0.1664200000000000
  0.0000000000000000  0.0000000000000000  0.7304900000000001
  0.0000000000000000  0.0000000000000000  0.2695100000000000
  0.6666800000000001  0.3333200000000000  0.0638000000000000
  0.6666600000000000  0.3333400000000000  0.6028600000000000
  0.3333400000000000  0.6666600000000000  0.3971400000000000
  0.3333200000000000  0.6666800000000001  0.9362000000000000
