Rh Ga  S 
 1.0000000000000000
     3.3435999999999999    0.0000000000000000    0.0000000000000000
    -1.6717999999999993    2.8956425400936490    0.0000000000000000
     0.0000000000000000    0.0000000000000000   11.5808999999999997
 Rh  Ga  S  
   4   2   2
Direct
  0.3332599999999999  0.6667400000000000  0.3504700000000000
  0.6667400000000000  0.3332600000000000  0.6495300000000001
  0.6667400000000000  0.3332600000000000  0.8504699999999999
  0.3332599999999999  0.6667400000000000  0.1495300000000000
  0.0000000000000000  0.0000000000000000  0.0000000000000000
  0.0000000000000000  0.0000000000000000  0.5000000000000000
  0.3332799999999999  0.6667199999999999  0.7500000000000000
  0.6667200000000000  0.3332800000000000  0.2500000000000000
