Pd  S Ga 
 1.0000000000000000
     3.2690000000000001    0.0000000000000000    0.0000000000000000
    -1.6344999999999994    2.8310370449713305    0.0000000000000000
     0.0000000000000000    0.0000000000000000    8.5470000000000006
 Pd  S   Ga 
   2   2   1
Direct
  0.6668100000000000  0.3334100000000000  0.7440500000000000
  0.3331900000000000  0.6665900000000000  0.2559500000000000
  0.6666599999999998  0.3333300000000000  0.4339300000000000
  0.3333399999999999  0.6666700000000000  0.5660700000000000
  0.0000000000000000  0.0000000000000000  0.0000000000000000
