Re Se Al 
 1.0000000000000000
     3.2709999999999999    0.0000000000000000    0.0000000000000000
    -1.6354999999999993    2.8327690957788989    0.0000000000000000
     0.0000000000000000    0.0000000000000000   25.4780000000000015
 Re  Se  Al 
   6   6   3
Direct
  0.0000000000000000  0.0000000000000000  0.5868100000000001
  0.9999999999999997  0.9999999999999998  0.4131900000000000
  0.6666800000000001  0.3333199999999999  0.9201400000000000
  0.6666600000000000  0.3333400000000000  0.7465299999999999
  0.3333400000000000  0.6666600000000000  0.2534700000000000
  0.3333199999999999  0.6666800000000001  0.0798600000000000
  0.0000000000000000  0.0000000000000000  0.7823200000000000
  0.9999999999999997  0.9999999999999998  0.2176800000000000
  0.6666600000000000  0.3333400000000000  0.1156600000000000
  0.6666600000000000  0.3333400000000000  0.5510100000000000
  0.3333400000000000  0.6666600000000000  0.4489900000000000
  0.3333400000000000  0.6666600000000000  0.8843400000000000
  0.0000000000000000  0.0000000000000000  0.0000000000000000
  0.6666500000000000  0.3333500000000000  0.3333400000000000
  0.3333499999999999  0.6666499999999999  0.6666599999999999
