Pd Te Ge 
 1.0000000000000000
     3.2690000000000001    0.0000000000000000    0.0000000000000000
    -1.6344999999999994    2.8310370449713305    0.0000000000000000
     0.0000000000000000    0.0000000000000000    8.5470000000000006
 Pd  Te  Ge 
   2   2   1
Direct
  0.6941100000000000  0.3470500000000000  0.8183100000000000
  0.3058900000000000  0.6529500000000000  0.1816900000000000
  0.6119300000000000  0.3059600000000001  0.3965300000000000
  0.3880700000000000  0.6940400000000000  0.6034699999999998
  0.0000000000000000  0.0000000000000000  0.0000000000000000
