 V Te  B 
 1.0000000000000000
     3.2709999999999999    0.0000000000000000    0.0000000000000000
    -1.6354999999999993    2.8327690957788989    0.0000000000000000
     0.0000000000000000    0.0000000000000000   25.4780000000000015
 V   Te  B  
   6   6   3
Direct
  0.0000399999999999  0.9999599999999998  0.6419400000000000
  0.9999600000000000  0.0000400000000000  0.3580599999999999
  0.6666700000000000  0.3333300000000000  0.9752700000000000
  0.6667100000000000  0.3332900000000000  0.6913899999999999
  0.3332900000000000  0.6667100000000000  0.3086100000000000
  0.3333300000000000  0.6666700000000000  0.0247300000000000
  0.9999299999999999  0.0000700000000000  0.7690900000000001
  0.0000700000000000  0.9999300000000000  0.2309100000000000
  0.6666700000000000  0.3333300000000000  0.1024200000000000
  0.6665999999999999  0.3334000000000000  0.5642400000000000
  0.3334000000000000  0.6666000000000000  0.4357599999999999
  0.3333300000000000  0.6666700000000000  0.8975799999999999
  0.0000000000000000  0.0000000000000000  0.0000000000000000
  0.6666299999999999  0.3333700000000000  0.3333300000000000
  0.3333699999999999  0.6666299999999997  0.6666699999999999
