Na Os  C Te
 1.0000000000000000
     3.3029999999999999    0.0000000000000000    0.0000000000000000
    -1.6514999999999993    2.8604819087000011    0.0000000000000000
     0.0000000000000000    0.0000000000000000   25.8299999999999983
 Na  Os  C   Te
   3   6   3   6
Direct
  0.0000000000000000  0.0000000000000000  0.0000000000000000
  0.6969300000000000  0.3030700000000000  0.3334200000000000
  0.3030700000000000  0.6969300000000000  0.6665800000000000
  0.0187700000000000  0.9812300000000000  0.8745300000000001
  0.9812300000000000  0.0187700000000000  0.1254700000000000
  0.7574800000000000  0.2425200000000000  0.2051300000000000
  0.7339599999999999  0.2660400000000000  0.4619900000000000
  0.2660400000000000  0.7339599999999999  0.5380100000000000
  0.2425200000000000  0.7574800000000000  0.7948700000000000
  0.0000000000000000  0.0000000000000000  0.5000000000000000
  0.7253999999999999  0.2746000000000000  0.8326500000000001
  0.2746000000000000  0.7254000000000000  0.1673500000000001
  0.9435300000000000  0.0564700000000000  0.7380000000000000
  0.0564700000000000  0.9435300000000000  0.2620000000000000
  0.6523500000000000  0.3476500000000000  0.0712900000000000
  0.6548000000000000  0.3452000000000000  0.5963300000000000
  0.3452000000000000  0.6548000000000000  0.4036700000000000
  0.3476500000000000  0.6523500000000000  0.9287100000000000
