Pd  S As 
 1.0000000000000000
     3.2709999999999999    0.0000000000000000    0.0000000000000000
    -1.6354999999999993    2.8327690957788989    0.0000000000000000
     0.0000000000000000    0.0000000000000000   25.4780000000000015
 Pd  S   As 
   6   6   3
Direct
  0.9999999999999997  0.9999999999999998  0.6067900000000001
  0.0000000000000000  0.0000000000000000  0.3932099999999999
  0.6666700000000000  0.3333300000000000  0.9401200000000000
  0.6666700000000000  0.3333300000000000  0.7265499999999998
  0.3333300000000000  0.6666700000000000  0.2734500000000000
  0.3333300000000000  0.6666700000000000  0.0598800000000000
  0.0000000000000000  0.0000000000000000  0.7837200000000000
  0.9999999999999997  0.9999999999999998  0.2162800000000000
  0.6666700000000000  0.3333300000000000  0.1170500000000000
  0.6666700000000000  0.3333300000000000  0.5496200000000000
  0.3333300000000000  0.6666700000000000  0.4503800000000000
  0.3333300000000000  0.6666700000000000  0.8829499999999999
  0.0000000000000000  0.0000000000000000  0.0000000000000000
  0.6666700000000000  0.3333300000000000  0.3333300000000000
  0.3333300000000000  0.6666700000000000  0.6666699999999999
