Hg Se Sn 
 1.0000000000000000
     3.2709999999999999    0.0000000000000000    0.0000000000000000
    -1.6354999999999993    2.8327690957788989    0.0000000000000000
     0.0000000000000000    0.0000000000000000   25.4780000000000015
 Hg  Se  Sn 
   6   6   3
Direct
  0.0017700000000000  0.9982299999999998  0.5797700000000000
  0.9982300000000000  0.0017700000000000  0.4202300000000000
  0.6433400000000000  0.3566599999999999  0.9132599999999998
  0.6561700000000000  0.3438300000000000  0.7532900000000000
  0.3438299999999999  0.6561699999999999  0.2467100000000000
  0.3566600000000000  0.6433400000000000  0.0867400000000000
  0.9991800000000000  0.0008200000000000  0.8183700000000000
  0.0008200000000000  0.9991799999999998  0.1816300000000000
  0.6991400000000000  0.3008600000000000  0.1518500000000000
  0.6840300000000000  0.3159700000000000  0.5144500000000000
  0.3159700000000000  0.6840300000000000  0.4855499999999999
  0.3008600000000000  0.6991399999999999  0.8481500000000000
  0.0000000000000000  0.0000000000000000  0.0000000000000000
  0.6998400000000000  0.3001600000000000  0.3333199999999999
  0.3001599999999999  0.6998399999999999  0.6666800000000001
