Li Rh Se  C 
 1.0000000000000000
     3.3121000000000000    0.0000000000000000    0.0000000000000000
    -1.6560499999999991    2.8683627398744393    0.0000000000000000
     0.0000000000000000    0.0000000000000000    9.0113000000000003
 Li  Rh  Se  C  
   2   2   2   1
Direct
  0.6666700000000001  0.3333300000000000  0.5689300000000000
  0.3333300000000001  0.6666700000000000  0.4310700000000000
  0.6666300000000002  0.3333100000000000  0.8927400000000001
  0.3333700000000000  0.6666900000000000  0.1072600000000000
  0.6666700000000001  0.3333400000000000  0.2978600000000000
  0.3333300000000001  0.6666600000000000  0.7021400000000000
  0.0000000000000000  0.0000000000000000  0.0000000000000000
