Li Re  N  S 
 1.0000000000000000
     3.3029999999999999    0.0000000000000000    0.0000000000000000
    -1.6514999999999991    2.8604819087000011    0.0000000000000000
     0.0000000000000000    0.0000000000000000   25.8299999999999983
 Li  Re  N   S  
   3   6   3   6
Direct
  0.0000000000000000  0.0000000000000000  0.0000000000000000
  0.1332900000000000  0.8667100000000000  0.3320100000000000
  0.8667099999999999  0.1332900000000000  0.6679900000000000
  0.0072500000000000  0.9927500000000000  0.8754300000000000
  0.9927500000000000  0.0072500000000000  0.1245700000000000
  0.5400400000000000  0.4599600000000000  0.2035100000000000
  0.7266699999999999  0.2733300000000000  0.4605000000000000
  0.2733299999999999  0.7266700000000000  0.5395000000000000
  0.4599600000000000  0.5400400000000000  0.7964900000000000
  0.0000000000000000  0.0000000000000000  0.5000000000000000
  0.7330899999999999  0.2669100000000000  0.8361300000000000
  0.2669099999999999  0.7330900000000001  0.1638700000000000
  0.1036099999999999  0.8963900000000001  0.7548600000000000
  0.8963899999999998  0.1036100000000000  0.2451400000000000
  0.6364700000000000  0.3635300000000000  0.0828900000000000
  0.6304700000000000  0.3695300000000000  0.5811700000000000
  0.3695300000000000  0.6304700000000000  0.4188300000000000
  0.3635300000000000  0.6364700000000000  0.9171100000000001
