Ca Mo  C Te
 1.0000000000000000
     3.3029999999999999    0.0000000000000000    0.0000000000000000
    -1.6514999999999993    2.8604819087000011    0.0000000000000000
     0.0000000000000000    0.0000000000000000   25.8299999999999983
 Ca  Mo  C   Te
   3   6   3   6
Direct
  0.0000000000000000  0.0000000000000000  0.0000000000000000
  0.6666100000000000  0.3333900000000000  0.3222300000000000
  0.3333899999999999  0.6666100000000000  0.6777700000000000
  0.9999699999999998  0.0000300000000000  0.8539500000000000
  0.0000300000000000  0.9999700000000000  0.1460500000000000
  0.6666999999999998  0.3333000000000000  0.2069100000000000
  0.6666700000000000  0.3333300000000000  0.4726000000000000
  0.3333300000000000  0.6666700000000000  0.5274000000000000
  0.3332999999999999  0.6667000000000000  0.7930900000000000
  0.0000000000000000  0.0000000000000000  0.5000000000000000
  0.6666400000000000  0.3333600000000000  0.8036900000000000
  0.3333600000000000  0.6666400000000000  0.1963100000000000
  0.0000600000000000  0.9999400000000002  0.7187400000000000
  0.9999399999999998  0.0000600000000000  0.2812600000000000
  0.6666999999999998  0.3333000000000000  0.0891800000000000
  0.6666600000000000  0.3333400000000000  0.5930100000000000
  0.3333400000000000  0.6666600000000000  0.4069900000000000
  0.3332999999999999  0.6667000000000000  0.9108200000000000
