Zr  S  B 
 1.0000000000000000
     3.2709999999999999    0.0000000000000000    0.0000000000000000
    -1.6354999999999993    2.8327690957788989    0.0000000000000000
     0.0000000000000000    0.0000000000000000   25.4780000000000015
 Zr  S   B  
   6   6   3
Direct
  0.0122099999999999  0.9877899999999997  0.5805500000000000
  0.9877899999999999  0.0122100000000000  0.4194499999999999
  0.7635800000000000  0.2364200000000000  0.9142999999999998
  0.7331700000000000  0.2668300000000000  0.7482200000000000
  0.2668300000000000  0.7331699999999999  0.2517800000000000
  0.2364200000000000  0.7635799999999999  0.0857000000000000
  0.0747000000000000  0.9253000000000000  0.7770899999999999
  0.9253000000000000  0.0747000000000000  0.2229100000000000
  0.5703199999999999  0.4296799999999999  0.1152600000000000
  0.6778900000000000  0.3221100000000000  0.5514600000000000
  0.3221100000000000  0.6778900000000000  0.4485400000000000
  0.4296800000000000  0.5703200000000000  0.8847400000000000
  0.0000000000000000  0.0000000000000000  0.0000000000000000
  0.8259300000000001  0.1740700000000000  0.3282800000000000
  0.1740699999999999  0.8259299999999998  0.6717200000000000
