Ti Ru  N Se 
 1.0000000000000000
     3.3029999999999999    0.0000000000000000    0.0000000000000000
    -1.6514999999999993    2.8604819087000011    0.0000000000000000
     0.0000000000000000    0.0000000000000000   25.8299999999999983
 Ti  Ru  N   Se 
   3   6   3   6
Direct
  0.0000000000000000  0.0000000000000000  0.0000000000000000
  0.6666400000000000  0.3333600000000000  0.3725400000000000
  0.3333600000000000  0.6666400000000000  0.6274600000000000
  0.0000000000000000  0.0000000000000000  0.8978100000000000
  0.0000000000000000  0.0000000000000000  0.1021900000000000
  0.6666900000000000  0.3333100000000000  0.2018600000000000
  0.6666400000000000  0.3333600000000000  0.4599700000000000
  0.3333600000000000  0.6666400000000000  0.5400300000000000
  0.3333099999999999  0.6666900000000000  0.7981400000000000
  0.0000000000000000  0.0000000000000000  0.5000000000000000
  0.6666700000000000  0.3333300000000000  0.8719800000000000
  0.3333300000000000  0.6666700000000000  0.1280200000000000
  0.9999699999999998  0.0000300000000000  0.7570700000000000
  0.0000300000000000  0.9999700000000000  0.2429300000000000
  0.6666600000000000  0.3333400000000000  0.0532800000000000
  0.6666900000000000  0.3333100000000000  0.5946800000000000
  0.3333099999999999  0.6666900000000000  0.4053200000000000
  0.3333400000000000  0.6666600000000000  0.9467200000000000
