Pt Te Sn 
 1.0000000000000000
     3.2690000000000001    0.0000000000000000    0.0000000000000000
    -1.6344999999999994    2.8310370449713305    0.0000000000000000
     0.0000000000000000    0.0000000000000000    8.5470000000000006
 Pt  Te  Sn 
   2   2   1
Direct
  0.6900300000000000  0.3450200000000000  0.7994099999999998
  0.3099699999999999  0.6549800000000000  0.2005900000000000
  0.6151700000000000  0.3075900000000000  0.4032300000000000
  0.3848299999999999  0.6924100000000001  0.5967700000000000
  0.0000000000000000  0.0000000000000000  0.0000000000000000
