Rh Te Ge 
 1.0000000000000000
     3.2690000000000001    0.0000000000000000    0.0000000000000000
    -1.6344999999999994    2.8310370449713305    0.0000000000000000
     0.0000000000000000    0.0000000000000000    8.5470000000000006
 Rh  Te  Ge 
   2   2   1
Direct
  0.6666999999999997  0.3333500000000000  0.8649900000000000
  0.3333000000000000  0.6666500000000000  0.1350100000000000
  0.6665500000000000  0.3332800000000001  0.3267900000000000
  0.3334500000000000  0.6667200000000001  0.6732099999999999
  0.0000000000000000  0.0000000000000000  0.0000000000000000
