Li Hf  C Te
 1.0000000000000000
     3.3029999999999999    0.0000000000000000    0.0000000000000000
    -1.6514999999999993    2.8604819087000011    0.0000000000000000
     0.0000000000000000    0.0000000000000000   25.8299999999999983
 Li  Hf  C   Te
   3   6   3   6
Direct
  0.0000000000000000  0.0000000000000000  0.0000000000000000
  0.4618600000000000  0.5381400000000000  0.3324900000000001
  0.5381400000000000  0.4618600000000000  0.6675100000000002
  0.8390299999999998  0.1609700000000000  0.8618000000000000
  0.1609700000000000  0.8390300000000001  0.1382000000000000
  0.8318800000000000  0.1681200000000000  0.1935700000000000
  0.6661000000000000  0.3339000000000000  0.4722200000000000
  0.3339000000000000  0.6661000000000000  0.5277800000000000
  0.1681199999999999  0.8318800000000000  0.8064300000000000
  0.0000000000000000  0.0000000000000000  0.5000000000000000
  0.5070200000000000  0.4929800000000000  0.8344700000000000
  0.4929799999999999  0.5070200000000000  0.1655300000000000
  0.8989100000000000  0.1010900000000000  0.7284200000000001
  0.1010900000000000  0.8989100000000000  0.2715800000000000
  0.4987700000000000  0.5012300000000000  0.0625000000000000
  0.0119900000000001  0.9880100000000002  0.6028200000000000
  0.9880100000000001  0.0119900000000000  0.3971800000000000
  0.5012300000000000  0.4987700000000000  0.9375000000000002
