Ni Te Sn 
 1.0000000000000000
     3.2690000000000001    0.0000000000000000    0.0000000000000000
    -1.6344999999999994    2.8310370449713305    0.0000000000000000
     0.0000000000000000    0.0000000000000000    8.5470000000000006
 Ni  Te  Sn 
   2   2   1
Direct
  0.6663899999999999  0.3331900000000000  0.8158800000000000
  0.3336100000000001  0.6668100000000001  0.1841200000000000
  0.6670800000000001  0.3335400000000001  0.3661200000000000
  0.3329200000000000  0.6664600000000001  0.6338800000000000
  0.0000000000000000  0.0000000000000000  0.0000000000000000
