Cd  S Pb 
 1.0000000000000000
     3.2690000000000001    0.0000000000000000    0.0000000000000000
    -1.6344999999999994    2.8310370449713305    0.0000000000000000
     0.0000000000000000    0.0000000000000000    8.5470000000000006
 Cd  S   Pb 
   2   2   1
Direct
  0.7520199999999998  0.3760100000000001  0.7301800000000001
  0.2479800000000000  0.6239900000000002  0.2698200000000000
  0.6103700000000000  0.3051900000000000  0.4620400000000000
  0.3896299999999999  0.6948100000000001  0.5379600000000000
  0.0000000000000000  0.0000000000000000  0.0000000000000000
