Pd Te Bi 
 1.0000000000000000
     3.2709999999999999    0.0000000000000000    0.0000000000000000
    -1.6354999999999993    2.8327690957788989    0.0000000000000000
     0.0000000000000000    0.0000000000000000   25.4780000000000015
 Pd  Te  Bi 
   6   6   3
Direct
  0.9999999999999997  0.9999999999999998  0.6014600000000000
  0.0000000000000000  0.0000000000000000  0.3985400000000000
  0.6666700000000000  0.3333300000000000  0.9348000000000000
  0.6666700000000000  0.3333300000000000  0.7318700000000000
  0.3333300000000000  0.6666700000000000  0.2681300000000000
  0.3333300000000000  0.6666700000000000  0.0652000000000000
  0.9999999999999997  0.9999999999999998  0.7955000000000000
  0.0000000000000000  0.0000000000000000  0.2045000000000000
  0.6666700000000000  0.3333300000000000  0.1288400000000000
  0.6666700000000000  0.3333300000000000  0.5378300000000000
  0.3333300000000000  0.6666700000000000  0.4621700000000000
  0.3333300000000000  0.6666700000000000  0.8711600000000000
  0.0000000000000000  0.0000000000000000  0.0000000000000000
  0.6666700000000000  0.3333300000000000  0.3333300000000000
  0.3333300000000000  0.6666700000000000  0.6666699999999999
