Na Sc  N  S 
 1.0000000000000000
     3.3029999999999999    0.0000000000000000    0.0000000000000000
    -1.6514999999999991    2.8604819087000011    0.0000000000000000
     0.0000000000000000    0.0000000000000000   25.8299999999999983
 Na  Sc  N   S  
   3   6   3   6
Direct
  0.0000000000000000  0.0000000000000000  0.0000000000000000
  0.5525200000000001  0.4474800000000000  0.3398900000000000
  0.4474799999999999  0.5525200000000000  0.6601100000000000
  0.9702699999999997  0.0297300000000000  0.8738100000000000
  0.0297300000000001  0.9702700000000001  0.1261900000000000
  0.7060599999999999  0.2939400000000000  0.2253300000000000
  0.6802200000000000  0.3197800000000000  0.4720300000000001
  0.3197800000000000  0.6802200000000000  0.5279700000000001
  0.2939400000000000  0.7060600000000000  0.7746700000000000
  0.0000000000000000  0.0000000000000000  0.5000000000000000
  0.7657900000000000  0.2342100000000000  0.8108100000000000
  0.2342100000000000  0.7657900000000000  0.1891900000000000
  0.9796200000000000  0.0203800000000000  0.7468700000000000
  0.0203800000000001  0.9796200000000002  0.2531300000000000
  0.6917000000000000  0.3083000000000000  0.0994900000000000
  0.7805500000000000  0.2194500000000000  0.5889300000000000
  0.2194499999999999  0.7805499999999999  0.4110700000000000
  0.3083000000000000  0.6917000000000000  0.9005100000000000
