Ti Te As 
 1.0000000000000000
     3.2709999999999999    0.0000000000000000    0.0000000000000000
    -1.6354999999999993    2.8327690957788989    0.0000000000000000
     0.0000000000000000    0.0000000000000000   25.4780000000000015
 Ti  Te  As 
   6   6   3
Direct
  0.0000799999999998  0.9999199999999998  0.6372299999999999
  0.9999200000000000  0.0000800000000000  0.3627699999999999
  0.6666700000000000  0.3333300000000000  0.9705700000000000
  0.6667400000000000  0.3332600000000000  0.6961000000000001
  0.3332600000000000  0.6667400000000000  0.3039000000000000
  0.3333300000000000  0.6666700000000000  0.0294300000000000
  0.9998800000000000  0.0001200000000000  0.7726700000000000
  0.0001199999999999  0.9998799999999999  0.2273300000000000
  0.6666600000000000  0.3333400000000000  0.1060100000000000
  0.6665400000000000  0.3334600000000000  0.5606600000000000
  0.3334600000000000  0.6665400000000000  0.4393400000000000
  0.3333400000000000  0.6666600000000000  0.8939899999999998
  0.0000000000000000  0.0000000000000000  0.0000000000000000
  0.6665999999999999  0.3334000000000000  0.3333300000000000
  0.3334000000000000  0.6666000000000000  0.6666699999999999
