Rh  S Sn 
 1.0000000000000000
     3.2709999999999999    0.0000000000000000    0.0000000000000000
    -1.6354999999999993    2.8327690957788989    0.0000000000000000
     0.0000000000000000    0.0000000000000000   25.4780000000000015
 Rh  S   Sn 
   6   6   3
Direct
  0.9999900000000000  0.0000100000000000  0.5572000000000000
  0.0000100000000000  0.9999899999999999  0.4428000000000000
  0.6666600000000000  0.3333400000000000  0.8905300000000000
  0.6666600000000000  0.3333400000000000  0.7761400000000001
  0.3333400000000000  0.6666600000000000  0.2238599999999999
  0.3333400000000000  0.6666600000000000  0.1094700000000000
  0.0000000000000000  0.0000000000000000  0.8266800000000000
  0.9999999999999997  0.9999999999999998  0.1733200000000000
  0.6666700000000000  0.3333300000000000  0.1600100000000000
  0.6666800000000001  0.3333199999999999  0.5066600000000000
  0.3333199999999999  0.6666800000000001  0.4933400000000000
  0.3333300000000000  0.6666700000000000  0.8399900000000000
  0.0000000000000000  0.0000000000000000  0.0000000000000000
  0.6666600000000000  0.3333400000000000  0.3333400000000000
  0.3333400000000000  0.6666600000000000  0.6666599999999999
