Ag Hg  C  S
 1.0000000000000000
     3.3029999999999999    0.0000000000000000    0.0000000000000000
    -1.6514999999999991    2.8604819087000011    0.0000000000000000
     0.0000000000000000    0.0000000000000000   25.8299999999999983
 Ag  Hg  C   S
   3   6   3   6
Direct
  0.0000000000000000  0.0000000000000000  0.0000000000000000
  0.6666700000000000  0.3333300000000000  0.3333300000000001
  0.3333300000000000  0.6666700000000000  0.6666700000000001
  0.0000000000000000  0.0000000000000000  0.8805900000000000
  0.0000000000000000  0.0000000000000000  0.1194100000000000
  0.6666700000000000  0.3333300000000000  0.2139200000000000
  0.6666700000000000  0.3333300000000000  0.4527500000000001
  0.3333300000000000  0.6666700000000000  0.5472500000000000
  0.3333300000000000  0.6666700000000000  0.7860800000000001
  0.0000000000000000  0.0000000000000000  0.5000000000000000
  0.6666700000000000  0.3333300000000000  0.8333300000000000
  0.3333300000000000  0.6666700000000000  0.1666700000000000
  0.0000000000000000  0.0000000000000000  0.7236500000000000
  0.0000000000000000  0.0000000000000000  0.2763500000000000
  0.6666700000000000  0.3333300000000000  0.0569800000000000
  0.6666700000000000  0.3333300000000000  0.6096800000000000
  0.3333300000000000  0.6666700000000000  0.3903200000000001
  0.3333300000000000  0.6666700000000000  0.9430200000000001
