Ti Se Bi 
 1.0000000000000000
     3.2690000000000001    0.0000000000000000    0.0000000000000000
    -1.6344999999999994    2.8310370449713305    0.0000000000000000
     0.0000000000000000    0.0000000000000000    8.5470000000000006
 Ti  Se  Bi 
   2   2   1
Direct
  0.4548300000000001  0.2274200000000000  0.7471700000000000
  0.5451700000000000  0.7725800000000003  0.2528300000000000
  0.8570900000000000  0.4285400000000000  0.3357899999999999
  0.1429100000000001  0.5714600000000001  0.6642100000000000
  0.0000000000000000  0.0000000000000000  0.0000000000000000
