Mg Os  C Te
 1.0000000000000000
     3.3029999999999999    0.0000000000000000    0.0000000000000000
    -1.6514999999999993    2.8604819087000011    0.0000000000000000
     0.0000000000000000    0.0000000000000000   25.8299999999999983
 Mg  Os  C   Te
   3   6   3   6
Direct
  0.0000000000000000  0.0000000000000000  0.0000000000000000
  0.6666700000000000  0.3333300000000000  0.3333300000000001
  0.3333300000000000  0.6666700000000000  0.6666700000000001
  0.0000000000000000  0.0000000000000000  0.8730900000000001
  0.0000000000000000  0.0000000000000000  0.1269100000000000
  0.6666700000000000  0.3333300000000000  0.2064100000000000
  0.6666600000000000  0.3333400000000000  0.4602500000000000
  0.3333400000000000  0.6666600000000000  0.5397500000000000
  0.3333300000000000  0.6666700000000000  0.7935900000000000
  0.0000000000000000  0.0000000000000000  0.5000000000000000
  0.6666700000000000  0.3333300000000000  0.8333199999999999
  0.3333300000000000  0.6666700000000000  0.1666800000000000
  0.0000000000000000  0.0000000000000000  0.7403400000000000
  0.0000000000000000  0.0000000000000000  0.2596600000000000
  0.6666700000000000  0.3333300000000000  0.0736800000000000
  0.6666700000000000  0.3333300000000000  0.5929900000000000
  0.3333300000000000  0.6666700000000000  0.4070100000000000
  0.3333300000000000  0.6666700000000000  0.9263200000000000
