Zr Se Al 
 1.0000000000000000
     3.2709999999999999    0.0000000000000000    0.0000000000000000
    -1.6354999999999993    2.8327690957788989    0.0000000000000000
     0.0000000000000000    0.0000000000000000   25.4780000000000015
 Zr  Se  Al 
   6   6   3
Direct
  0.0000100000000000  0.9999899999999999  0.5763300000000000
  0.9999900000000000  0.0000100000000000  0.4236700000000000
  0.6666600000000000  0.3333400000000000  0.9096099999999999
  0.6666600000000000  0.3333400000000000  0.7569999999999998
  0.3333400000000000  0.6666600000000000  0.2429999999999999
  0.3333400000000000  0.6666600000000000  0.0903900000000000
  0.0000000000000000  0.0000000000000000  0.7885599999999999
  0.9999999999999997  0.9999999999999998  0.2114400000000000
  0.6666700000000000  0.3333300000000000  0.1219400000000000
  0.6666600000000000  0.3333400000000000  0.5447700000000000
  0.3333400000000000  0.6666600000000000  0.4552300000000000
  0.3333300000000000  0.6666700000000000  0.8780599999999997
  0.0000000000000000  0.0000000000000000  0.0000000000000000
  0.6666600000000000  0.3333400000000000  0.3333400000000000
  0.3333400000000000  0.6666600000000000  0.6666599999999999
