Na Ir  N  S 
 1.0000000000000000
     3.3029999999999999    0.0000000000000000    0.0000000000000000
    -1.6514999999999991    2.8604819087000011    0.0000000000000000
     0.0000000000000000    0.0000000000000000   25.8299999999999983
 Na  Ir  N   S  
   3   6   3   6
Direct
  0.0000000000000000  0.0000000000000000  0.0000000000000000
  0.6666700000000000  0.3333300000000000  0.3333400000000001
  0.3333300000000000  0.6666700000000000  0.6666600000000001
  0.0000000000000000  0.0000000000000000  0.8752500000000000
  0.0000000000000000  0.0000000000000000  0.1247500000000000
  0.6666700000000000  0.3333300000000000  0.2084900000000000
  0.6666700000000000  0.3333300000000000  0.4581300000000000
  0.3333300000000000  0.6666700000000000  0.5418700000000000
  0.3333300000000000  0.6666700000000000  0.7915100000000000
  0.0000000000000000  0.0000000000000000  0.5000000000000000
  0.6666700000000000  0.3333300000000000  0.8334500000000000
  0.3333300000000000  0.6666700000000000  0.1665500000000000
  0.0000000000000000  0.0000000000000000  0.7505600000000000
  0.0000000000000000  0.0000000000000000  0.2494400000000000
  0.6666700000000000  0.3333300000000000  0.0838300000000000
  0.6666700000000000  0.3333300000000000  0.5828000000000000
  0.3333300000000000  0.6666700000000000  0.4172000000000000
  0.3333300000000000  0.6666700000000000  0.9161700000000000
