Mn Sc  C Te
 1.0000000000000000
     3.3029999999999999    0.0000000000000000    0.0000000000000000
    -1.6514999999999993    2.8604819087000011    0.0000000000000000
     0.0000000000000000    0.0000000000000000   25.8299999999999983
 Mn  Sc  C   Te
   3   6   3   6
Direct
  0.0000000000000000  0.0000000000000000  0.0000000000000000
  0.7590300000000000  0.2409700000000000  0.3306600000000000
  0.2409700000000000  0.7590300000000001  0.6693400000000000
  0.1055200000000000  0.8944800000000001  0.8600800000000000
  0.8944800000000001  0.1055200000000000  0.1399200000000000
  0.5625300000000001  0.4374700000000000  0.1890600000000000
  0.6714300000000000  0.3285700000000000  0.4755200000000000
  0.3285700000000000  0.6714300000000000  0.5244799999999999
  0.4374700000000000  0.5625300000000000  0.8109400000000001
  0.0000000000000000  0.0000000000000000  0.5000000000000000
  0.7650899999999999  0.2349100000000000  0.8347800000000001
  0.2349099999999999  0.7650900000000000  0.1652200000000000
  0.9256999999999999  0.0743000000000000  0.7188500000000000
  0.0743000000000000  0.9257000000000000  0.2811500000000000
  0.6672800000000000  0.3327200000000000  0.0539500000000000
  0.7752700000000001  0.2247300000000000  0.6065900000000000
  0.2247299999999999  0.7752700000000000  0.3934100000000000
  0.3327200000000000  0.6672800000000000  0.9460499999999999
