 Y  S Bi 
 1.0000000000000000
     3.2690000000000001    0.0000000000000000    0.0000000000000000
    -1.6344999999999994    2.8310370449713305    0.0000000000000000
     0.0000000000000000    0.0000000000000000    8.5470000000000006
 Y   S   Bi 
   2   2   1
Direct
  0.4947599999999999  0.2473800000000000  0.7296899999999999
  0.5052400000000000  0.7526200000000002  0.2703100000000000
  0.8349599999999998  0.4174800000000000  0.3490599999999999
  0.1650400000000000  0.5825200000000000  0.6509400000000000
  0.0000000000000000  0.0000000000000000  0.0000000000000000
