Ti Te Al 
 1.0000000000000000
     3.2709999999999999    0.0000000000000000    0.0000000000000000
    -1.6354999999999993    2.8327690957788989    0.0000000000000000
     0.0000000000000000    0.0000000000000000   25.4780000000000015
 Ti  Te  Al 
   6   6   3
Direct
  0.9999999999999997  0.9999999999999998  0.6130000000000000
  0.0000000000000000  0.0000000000000000  0.3870000000000000
  0.6666700000000000  0.3333300000000000  0.9463299999999998
  0.6666700000000000  0.3333300000000000  0.7203400000000000
  0.3333300000000000  0.6666700000000000  0.2796600000000000
  0.3333300000000000  0.6666700000000000  0.0536700000000000
  0.9999999999999997  0.9999999999999998  0.7701300000000000
  0.0000000000000000  0.0000000000000000  0.2298700000000000
  0.6666700000000000  0.3333300000000000  0.1034500000000000
  0.6666700000000000  0.3333300000000000  0.5632100000000000
  0.3333300000000000  0.6666700000000000  0.4367900000000000
  0.3333300000000000  0.6666700000000000  0.8965500000000000
  0.0000000000000000  0.0000000000000000  0.0000000000000000
  0.6666700000000000  0.3333300000000000  0.3333300000000000
  0.3333300000000000  0.6666700000000000  0.6666699999999999
