 Y Se Al 
 1.0000000000000000
     3.2709999999999999    0.0000000000000000    0.0000000000000000
    -1.6354999999999993    2.8327690957788989    0.0000000000000000
     0.0000000000000000    0.0000000000000000   25.4780000000000015
 Y   Se  Al 
   6   6   3
Direct
  0.9999999999999997  0.9999999999999998  0.5775200000000000
  0.0000000000000000  0.0000000000000000  0.4224800000000000
  0.6666600000000000  0.3333400000000000  0.9108500000000000
  0.6666600000000000  0.3333400000000000  0.7558099999999999
  0.3333400000000000  0.6666600000000000  0.2441900000000000
  0.3333400000000000  0.6666600000000000  0.0891500000000000
  0.0000000000000000  0.0000000000000000  0.7872600000000000
  0.9999999999999997  0.9999999999999998  0.2127400000000000
  0.6666700000000000  0.3333300000000000  0.1206000000000000
  0.6666700000000000  0.3333300000000000  0.5460800000000000
  0.3333300000000000  0.6666700000000000  0.4539200000000000
  0.3333300000000000  0.6666700000000000  0.8794000000000000
  0.0000000000000000  0.0000000000000000  0.0000000000000000
  0.6666600000000000  0.3333400000000000  0.3333300000000000
  0.3333400000000000  0.6666600000000000  0.6666699999999999
