 V  S Sn 
 1.0000000000000000
     3.2709999999999999    0.0000000000000000    0.0000000000000000
    -1.6354999999999993    2.8327690957788989    0.0000000000000000
     0.0000000000000000    0.0000000000000000   25.4780000000000015
 V   S   Sn 
   6   6   3
Direct
  0.0000100000000000  0.9999899999999999  0.5742100000000000
  0.9999900000000000  0.0000100000000000  0.4257900000000000
  0.6666700000000000  0.3333300000000000  0.9075400000000000
  0.6666800000000001  0.3333199999999999  0.7591300000000000
  0.3333199999999999  0.6666800000000001  0.2408700000000000
  0.3333300000000000  0.6666700000000000  0.0924600000000000
  0.0000100000000000  0.9999899999999999  0.7830499999999999
  0.9999900000000000  0.0000100000000000  0.2169500000000000
  0.6666700000000000  0.3333300000000000  0.1163800000000000
  0.6666700000000000  0.3333300000000000  0.5502899999999999
  0.3333300000000000  0.6666700000000000  0.4497100000000000
  0.3333300000000000  0.6666700000000000  0.8836200000000000
  0.0000000000000000  0.0000000000000000  0.0000000000000000
  0.6667000000000000  0.3333000000000000  0.3333400000000000
  0.3332999999999999  0.6667000000000000  0.6666599999999999
