Li Os  C Se
 1.0000000000000000
     3.3029999999999999    0.0000000000000000    0.0000000000000000
    -1.6514999999999993    2.8604819087000011    0.0000000000000000
     0.0000000000000000    0.0000000000000000   25.8299999999999983
 Li  Os  C   Se
   3   6   3   6
Direct
  0.0000000000000000  0.0000000000000000  0.0000000000000000
  0.6312900000000000  0.3687100000000000  0.3383600000000000
  0.3687099999999999  0.6312900000000000  0.6616400000000001
  0.0279800000000000  0.9720200000000000  0.8748100000000000
  0.9720200000000000  0.0279800000000000  0.1251900000000000
  0.7862900000000000  0.2137100000000000  0.2098000000000000
  0.6231499999999998  0.3768500000000001  0.4603300000000001
  0.3768500000000000  0.6231500000000000  0.5396700000000000
  0.2137100000000001  0.7862900000000000  0.7902000000000000
  0.0000000000000000  0.0000000000000000  0.5000000000000000
  0.5464300000000000  0.4535700000000000  0.8146300000000000
  0.4535699999999999  0.5464300000000000  0.1853700000000000
  0.8972800000000000  0.1027200000000000  0.7265000000000001
  0.1027200000000000  0.8972800000000000  0.2735000000000000
  0.6437700000000000  0.3562300000000000  0.0786600000000000
  0.7045000000000000  0.2955000000000000  0.5897000000000000
  0.2955000000000000  0.7045000000000001  0.4103000000000000
  0.3562299999999999  0.6437700000000000  0.9213400000000000
