Li Rh  C  S
 1.0000000000000000
     3.3029999999999999    0.0000000000000000    0.0000000000000000
    -1.6514999999999991    2.8604819087000011    0.0000000000000000
     0.0000000000000000    0.0000000000000000   25.8299999999999983
 Li  Rh  C   S
   3   6   3   6
Direct
  0.0000000000000000  0.0000000000000000  0.0000000000000000
  0.6666700000000000  0.3333300000000000  0.3333300000000001
  0.3333300000000000  0.6666700000000000  0.6666700000000001
  0.0000000000000000  0.0000000000000000  0.8721100000000001
  0.0000000000000000  0.0000000000000000  0.1278900000000000
  0.6666800000000001  0.3333200000000000  0.2054400000000000
  0.6666700000000000  0.3333300000000000  0.4612200000000000
  0.3333300000000000  0.6666700000000000  0.5387800000000000
  0.3333200000000000  0.6666800000000001  0.7945600000000000
  0.0000000000000000  0.0000000000000000  0.5000000000000000
  0.6666700000000000  0.3333300000000000  0.8333300000000000
  0.3333300000000000  0.6666700000000000  0.1666700000000000
  0.0000000000000000  0.0000000000000000  0.7329000000000000
  0.0000000000000000  0.0000000000000000  0.2671000000000000
  0.6666700000000000  0.3333300000000000  0.0662300000000000
  0.6666600000000000  0.3333400000000000  0.6004400000000000
  0.3333400000000000  0.6666600000000000  0.3995600000000001
  0.3333300000000000  0.6666700000000000  0.9337700000000000
