Os  S  C 
 1.0000000000000000
     3.2709999999999999    0.0000000000000000    0.0000000000000000
    -1.6354999999999991    2.8327690957788989    0.0000000000000000
     0.0000000000000000    0.0000000000000000   25.4780000000000015
 Os  S   C  
   6   6   3
Direct
  0.9999900000000000  0.0000100000000000  0.6286499999999999
  0.0000100000000000  0.9999899999999999  0.3713500000000000
  0.6666700000000000  0.3333300000000000  0.9619999999999997
  0.6666700000000000  0.3333300000000000  0.7046399999999999
  0.3333300000000000  0.6666700000000000  0.2953600000000000
  0.3333300000000000  0.6666700000000000  0.0380000000000000
  0.0000000000000000  0.0000000000000000  0.7636499999999998
  0.9999999999999997  0.9999999999999998  0.2363500000000000
  0.6666600000000000  0.3333400000000000  0.0969800000000000
  0.6666700000000000  0.3333300000000000  0.5696900000000000
  0.3333300000000000  0.6666700000000000  0.4303100000000000
  0.3333400000000000  0.6666600000000000  0.9030200000000000
  0.0000000000000000  0.0000000000000000  0.0000000000000000
  0.6666700000000000  0.3333300000000000  0.3333000000000000
  0.3333300000000000  0.6666700000000000  0.6667000000000000
