Ti Ag  C  S
 1.0000000000000000
     3.3029999999999999    0.0000000000000000    0.0000000000000000
    -1.6514999999999991    2.8604819087000011    0.0000000000000000
     0.0000000000000000    0.0000000000000000   25.8299999999999983
 Ti  Ag  C   S
   3   6   3   6
Direct
  0.0000000000000000  0.0000000000000000  0.0000000000000000
  0.6666700000000000  0.3333300000000000  0.3333300000000001
  0.3333300000000000  0.6666700000000000  0.6666700000000001
  0.0000000000000000  0.0000000000000000  0.8785800000000000
  0.0000000000000000  0.0000000000000000  0.1214200000000000
  0.6666700000000000  0.3333300000000000  0.2119100000000000
  0.6666700000000000  0.3333300000000000  0.4547600000000001
  0.3333300000000000  0.6666700000000000  0.5452399999999999
  0.3333300000000000  0.6666700000000000  0.7880900000000000
  0.0000000000000000  0.0000000000000000  0.5000000000000000
  0.6666700000000000  0.3333300000000000  0.8333300000000000
  0.3333300000000000  0.6666700000000000  0.1666700000000000
  0.0000000000000000  0.0000000000000000  0.7210100000000002
  0.0000000000000000  0.0000000000000000  0.2789900000000000
  0.6666700000000000  0.3333300000000000  0.0543400000000000
  0.6666700000000000  0.3333300000000000  0.6123200000000000
  0.3333300000000000  0.6666700000000000  0.3876800000000001
  0.3333300000000000  0.6666700000000000  0.9456599999999999
