 Y Se Si 
 1.0000000000000000
     3.2690000000000001    0.0000000000000000    0.0000000000000000
    -1.6344999999999994    2.8310370449713305    0.0000000000000000
     0.0000000000000000    0.0000000000000000    8.5470000000000006
 Y   Se  Si 
   2   2   1
Direct
  0.6664699999999998  0.3332300000000000  0.7460800000000000
  0.3335300000000000  0.6667700000000001  0.2539200000000000
  0.6667700000000000  0.3333900000000001  0.3520700000000000
  0.3332300000000001  0.6666100000000001  0.6479300000000000
  0.0000000000000000  0.0000000000000000  0.0000000000000000
