Cr Pd  N  S 
 1.0000000000000000
     3.3029999999999999    0.0000000000000000    0.0000000000000000
    -1.6514999999999991    2.8604819087000011    0.0000000000000000
     0.0000000000000000    0.0000000000000000   25.8299999999999983
 Cr  Pd  N   S  
   3   6   3   6
Direct
  0.0000000000000000  0.0000000000000000  0.0000000000000000
  0.4330300000000000  0.5669700000000000  0.3000700000000000
  0.5669700000000000  0.4330300000000000  0.6999300000000002
  0.9993399999999999  0.0006600000000000  0.9035700000000000
  0.0006600000000000  0.9993400000000000  0.0964300000000000
  0.3549100000000000  0.6450900000000001  0.2071100000000000
  0.4797300000000000  0.5202700000000000  0.4447600000000000
  0.5202700000000000  0.4797300000000000  0.5552400000000000
  0.6450900000000001  0.3549099999999999  0.7928900000000000
  0.0000000000000000  0.0000000000000000  0.5000000000000000
  0.6646799999999998  0.3353200000000000  0.8638900000000000
  0.3353199999999999  0.6646800000000000  0.1361100000000000
  0.2387099999999999  0.7612900000000000  0.7277100000000000
  0.7612899999999999  0.2387100000000000  0.2722900000000000
  0.6670700000000001  0.3329300000000000  0.0423600000000000
  0.0392100000000001  0.9607900000000001  0.6081900000000000
  0.9607899999999998  0.0392100000000000  0.3918100000000000
  0.3329300000000000  0.6670700000000001  0.9576400000000000
