Ca Sc Te  C 
 1.0000000000000000
     3.3121000000000000    0.0000000000000000    0.0000000000000000
    -1.6560499999999991    2.8683627398744393    0.0000000000000000
     0.0000000000000000    0.0000000000000000    9.0113000000000003
 Ca  Sc  Te  C  
   2   2   2   1
Direct
  0.6666700000000001  0.3333300000000000  0.5596200000000000
  0.3333300000000001  0.6666700000000000  0.4403800000000000
  0.6666700000000001  0.3333300000000000  0.9082700000000001
  0.3333300000000001  0.6666700000000000  0.0917300000000000
  0.6666700000000001  0.3333300000000000  0.2599100000000000
  0.3333300000000001  0.6666700000000000  0.7400900000000000
  0.0000000000000000  0.0000000000000000  0.0000000000000000
