Co Ge  S 
 1.0000000000000000
     3.3435999999999999    0.0000000000000000    0.0000000000000000
    -1.6717999999999993    2.8956425400936490    0.0000000000000000
     0.0000000000000000    0.0000000000000000   11.5808999999999997
 Co  Ge  S  
   4   2   2
Direct
  0.3324399999999999  0.6675600000000000  0.4071500000000000
  0.6675600000000000  0.3324400000000000  0.5928500000000000
  0.6675900000000000  0.3324100000000000  0.9070700000000002
  0.3324100000000000  0.6675900000000000  0.0929300000000000
  0.0000000000000000  0.0000000000000000  0.0000000000000000
  0.0000000000000000  0.0000000000000000  0.5000000000000000
  0.5497299999999998  0.4502700000000000  0.7499600000000000
  0.4502700000000000  0.5497300000000001  0.2500400000000000
