Li Pd  N  S 
 1.0000000000000000
     3.3029999999999999    0.0000000000000000    0.0000000000000000
    -1.6514999999999991    2.8604819087000011    0.0000000000000000
     0.0000000000000000    0.0000000000000000   25.8299999999999983
 Li  Pd  N   S  
   3   6   3   6
Direct
  0.0000000000000000  0.0000000000000000  0.0000000000000000
  0.6666700000000000  0.3333300000000000  0.3333300000000001
  0.3333300000000000  0.6666700000000000  0.6666700000000001
  0.0000000000000000  0.0000000000000000  0.8774900000000001
  0.0000000000000000  0.0000000000000000  0.1225100000000000
  0.6666700000000000  0.3333300000000000  0.2107300000000000
  0.6666600000000000  0.3333400000000000  0.4558900000000000
  0.3333400000000000  0.6666600000000000  0.5441100000000000
  0.3333300000000000  0.6666700000000000  0.7892700000000000
  0.0000000000000000  0.0000000000000000  0.5000000000000000
  0.6666700000000000  0.3333300000000000  0.8336200000000000
  0.3333300000000000  0.6666700000000000  0.1663800000000000
  0.0000000000000000  0.0000000000000000  0.7385900000000000
  0.0000000000000000  0.0000000000000000  0.2614100000000000
  0.6666700000000000  0.3333300000000000  0.0719100000000000
  0.6666700000000000  0.3333300000000000  0.5947500000000000
  0.3333300000000000  0.6666700000000000  0.4052500000000000
  0.3333300000000000  0.6666700000000000  0.9280900000000000
