Hg Se Ga 
 1.0000000000000000
     3.2690000000000001    0.0000000000000000    0.0000000000000000
    -1.6344999999999994    2.8310370449713305    0.0000000000000000
     0.0000000000000000    0.0000000000000000    8.5470000000000006
 Hg  Se  Ga 
   2   2   1
Direct
  0.7043100000000000  0.3521600000000000  0.7609700000000000
  0.2956900000000000  0.6478400000000000  0.2390300000000000
  0.6226800000000000  0.3113400000000000  0.4500000000000000
  0.3773200000000000  0.6886600000000000  0.5500000000000000
  0.0000000000000000  0.0000000000000000  0.0000000000000000
