Na Zn  C  S
 1.0000000000000000
     3.3029999999999999    0.0000000000000000    0.0000000000000000
    -1.6514999999999991    2.8604819087000011    0.0000000000000000
     0.0000000000000000    0.0000000000000000   25.8299999999999983
 Na  Zn  C   S
   3   6   3   6
Direct
  0.0000000000000000  0.0000000000000000  0.0000000000000000
  0.6666700000000000  0.3333300000000000  0.3333300000000001
  0.3333300000000000  0.6666700000000000  0.6666700000000001
  0.0000000000000000  0.0000000000000000  0.8752400000000000
  0.0000000000000000  0.0000000000000000  0.1247600000000000
  0.6666700000000000  0.3333300000000000  0.2085700000000000
  0.6666700000000000  0.3333300000000000  0.4580900000000000
  0.3333300000000000  0.6666700000000000  0.5419100000000000
  0.3333300000000000  0.6666700000000000  0.7914300000000000
  0.0000000000000000  0.0000000000000000  0.5000000000000000
  0.6666700000000000  0.3333300000000000  0.8333300000000000
  0.3333300000000000  0.6666700000000000  0.1666700000000000
  0.0000000000000000  0.0000000000000000  0.7377000000000000
  0.0000000000000000  0.0000000000000000  0.2623000000000000
  0.6666700000000000  0.3333300000000000  0.0710400000000000
  0.6666700000000000  0.3333300000000000  0.5956300000000000
  0.3333300000000000  0.6666700000000000  0.4043700000000000
  0.3333300000000000  0.6666700000000000  0.9289600000000000
