Hg  S Ga 
 1.0000000000000000
     3.2690000000000001    0.0000000000000000    0.0000000000000000
    -1.6344999999999994    2.8310370449713305    0.0000000000000000
     0.0000000000000000    0.0000000000000000    8.5470000000000006
 Hg  S   Ga 
   2   2   1
Direct
  0.0008300000000000  0.5004100000000000  0.7550400000000000
  0.9991699999999998  0.4995900000000000  0.2449600000000000
  0.6391299999999998  0.3195700000000001  0.5000300000000000
  0.3608700000000000  0.6804300000000001  0.4999700000000000
  0.0000000000000000  0.0000000000000000  0.0000000000000000
