Cd Se In 
 1.0000000000000000
     3.2709999999999999    0.0000000000000000    0.0000000000000000
    -1.6354999999999993    2.8327690957788989    0.0000000000000000
     0.0000000000000000    0.0000000000000000   25.4780000000000015
 Cd  Se  In 
   6   6   3
Direct
  0.0080599999999999  0.9919399999999998  0.5829400000000000
  0.9919400000000000  0.0080600000000000  0.4170599999999999
  0.6629900000000000  0.3370100000000000  0.9163700000000000
  0.6697299999999999  0.3302700000000000  0.7505500000000001
  0.3302700000000000  0.6697300000000000  0.2494499999999999
  0.3370099999999999  0.6629899999999999  0.0836300000000000
  0.0176899999999999  0.9823099999999998  0.8179300000000000
  0.9823099999999999  0.0176900000000000  0.1820700000000000
  0.6848500000000000  0.3151499999999999  0.1508700000000000
  0.6866500000000000  0.3133500000000000  0.5148700000000000
  0.3133500000000000  0.6866500000000000  0.4851300000000000
  0.3151500000000000  0.6848500000000000  0.8491300000000001
  0.0000000000000000  0.0000000000000000  0.0000000000000000
  0.6664800000000000  0.3335199999999999  0.3331100000000000
  0.3335199999999999  0.6664799999999999  0.6668900000000000
