Na Ru  C  S
 1.0000000000000000
     3.3029999999999999    0.0000000000000000    0.0000000000000000
    -1.6514999999999991    2.8604819087000011    0.0000000000000000
     0.0000000000000000    0.0000000000000000   25.8299999999999983
 Na  Ru  C   S
   3   6   3   6
Direct
  0.0000000000000000  0.0000000000000000  0.0000000000000000
  0.6666700000000000  0.3333300000000000  0.3333300000000001
  0.3333300000000000  0.6666700000000000  0.6666700000000001
  0.0000000000000000  0.0000000000000000  0.8691100000000000
  0.0000000000000000  0.0000000000000000  0.1308900000000000
  0.6666700000000000  0.3333300000000000  0.2024400000000000
  0.6666700000000000  0.3333300000000000  0.4642200000000001
  0.3333300000000000  0.6666700000000000  0.5357800000000000
  0.3333300000000000  0.6666700000000000  0.7975600000000000
  0.0000000000000000  0.0000000000000000  0.5000000000000000
  0.6666700000000000  0.3333300000000000  0.8333300000000000
  0.3333300000000000  0.6666700000000000  0.1666700000000000
  0.0000000000000000  0.0000000000000000  0.7398100000000000
  0.0000000000000000  0.0000000000000000  0.2601900000000000
  0.6666700000000000  0.3333300000000000  0.0731500000000000
  0.6666600000000000  0.3333400000000000  0.5935200000000000
  0.3333400000000000  0.6666600000000000  0.4064800000000000
  0.3333300000000000  0.6666700000000000  0.9268500000000000
