Mg Os  C  S
 1.0000000000000000
     3.3029999999999999    0.0000000000000000    0.0000000000000000
    -1.6514999999999991    2.8604819087000011    0.0000000000000000
     0.0000000000000000    0.0000000000000000   25.8299999999999983
 Mg  Os  C   S
   3   6   3   6
Direct
  0.0000000000000000  0.0000000000000000  0.0000000000000000
  0.6666700000000000  0.3333300000000000  0.3333300000000001
  0.3333300000000000  0.6666700000000000  0.6666700000000001
  0.0000000000000000  0.0000000000000000  0.8683300000000000
  0.0000000000000000  0.0000000000000000  0.1316700000000000
  0.6666700000000000  0.3333300000000000  0.2016600000000000
  0.6666700000000000  0.3333300000000000  0.4650100000000000
  0.3333300000000000  0.6666700000000000  0.5349900000000000
  0.3333300000000000  0.6666700000000000  0.7983400000000000
  0.0000000000000000  0.0000000000000000  0.5000000000000000
  0.6666700000000000  0.3333300000000000  0.8333300000000000
  0.3333300000000000  0.6666700000000000  0.1666700000000000
  0.0000000000000000  0.0000000000000000  0.7288300000000001
  0.0000000000000000  0.0000000000000000  0.2711700000000000
  0.6666700000000000  0.3333300000000000  0.0621600000000000
  0.6666700000000000  0.3333300000000000  0.6045000000000000
  0.3333300000000000  0.6666700000000000  0.3955000000000000
  0.3333300000000000  0.6666700000000000  0.9378400000000000
