Zr Se Ga 
 1.0000000000000000
     3.2709999999999999    0.0000000000000000    0.0000000000000000
    -1.6354999999999993    2.8327690957788989    0.0000000000000000
     0.0000000000000000    0.0000000000000000   25.4780000000000015
 Zr  Se  Ga 
   6   6   3
Direct
  0.0000199999999999  0.9999799999999998  0.5764600000000000
  0.9999800000000000  0.0000200000000000  0.4235400000000000
  0.6666700000000000  0.3333300000000000  0.9098000000000001
  0.6666900000000000  0.3333099999999999  0.7568700000000000
  0.3333100000000000  0.6666900000000000  0.2431300000000000
  0.3333300000000000  0.6666700000000000  0.0902000000000000
  0.0000199999999999  0.9999799999999998  0.7885200000000000
  0.9999800000000000  0.0000200000000000  0.2114800000000000
  0.6666600000000000  0.3333400000000000  0.1218500000000000
  0.6666900000000000  0.3333099999999999  0.5448100000000000
  0.3333100000000000  0.6666900000000000  0.4551899999999999
  0.3333400000000000  0.6666600000000000  0.8781500000000000
  0.0000000000000000  0.0000000000000000  0.0000000000000000
  0.6667600000000000  0.3332399999999999  0.3333300000000000
  0.3332399999999999  0.6667599999999999  0.6666699999999999
