Hf Se Ge 
 1.0000000000000000
     3.2709999999999999    0.0000000000000000    0.0000000000000000
    -1.6354999999999993    2.8327690957788989    0.0000000000000000
     0.0000000000000000    0.0000000000000000   25.4780000000000015
 Hf  Se  Ge 
   6   6   3
Direct
  0.9773300000000000  0.0226700000000000  0.5830100000000000
  0.0226700000000000  0.9773300000000000  0.4169900000000000
  0.5270400000000000  0.4729599999999999  0.9193799999999998
  0.6715700000000000  0.3284300000000000  0.7478499999999999
  0.3284299999999999  0.6715699999999999  0.2521500000000000
  0.4729600000000000  0.5270400000000000  0.0806200000000000
  0.0024699999999998  0.9975299999999998  0.7810700000000000
  0.9975300000000000  0.0024700000000000  0.2189300000000000
  0.8010000000000000  0.1990000000000000  0.1143100000000000
  0.6438199999999999  0.3561800000000000  0.5492400000000000
  0.3561799999999999  0.6438199999999998  0.4507599999999999
  0.1990000000000000  0.8010000000000000  0.8856900000000000
  0.0000000000000000  0.0000000000000000  0.0000000000000000
  0.8094000000000000  0.1906000000000000  0.3302800000000000
  0.1905999999999999  0.8093999999999998  0.6697199999999999
