Hg  S  P 
 1.0000000000000000
     3.2709999999999999    0.0000000000000000    0.0000000000000000
    -1.6354999999999993    2.8327690957788989    0.0000000000000000
     0.0000000000000000    0.0000000000000000   25.4780000000000015
 Hg  S   P  
   6   6   3
Direct
  0.9587400000000000  0.0412600000000000  0.5856200000000000
  0.0412599999999999  0.9587399999999998  0.4143800000000000
  0.6356700000000000  0.3643299999999999  0.9195800000000000
  0.6019600000000001  0.3980400000000000  0.7443400000000000
  0.3980399999999999  0.6019599999999999  0.2556600000000000
  0.3643300000000000  0.6356700000000000  0.0804200000000000
  0.9751500000000000  0.0248500000000000  0.8286400000000000
  0.0248500000000000  0.9751500000000000  0.1713600000000000
  0.7286200000000000  0.2713800000000000  0.1641900000000000
  0.6880200000000000  0.3119799999999999  0.5062600000000000
  0.3119799999999999  0.6880199999999999  0.4937400000000000
  0.2713799999999999  0.7286199999999998  0.8358099999999999
  0.0000000000000000  0.0000000000000000  0.0000000000000000
  0.7752500000000000  0.2247500000000000  0.3363600000000000
  0.2247499999999999  0.7752499999999998  0.6636400000000000
