Pt Te Bi 
 1.0000000000000000
     3.2690000000000001    0.0000000000000000    0.0000000000000000
    -1.6344999999999994    2.8310370449713305    0.0000000000000000
     0.0000000000000000    0.0000000000000000    8.5470000000000006
 Pt  Te  Bi 
   2   2   1
Direct
  0.6872800000000000  0.3436400000000001  0.7965100000000001
  0.3127200000000000  0.6563600000000001  0.2034900000000000
  0.6320300000000000  0.3160100000000000  0.4027300000000000
  0.3679699999999999  0.6839900000000000  0.5972700000000000
  0.0000000000000000  0.0000000000000000  0.0000000000000000
