Zn Cr Se  N 
 1.0000000000000000
     3.3121000000000000    0.0000000000000000    0.0000000000000000
    -1.6560499999999994    2.8683627398744393    0.0000000000000000
     0.0000000000000000    0.0000000000000000    9.0113000000000003
 Zn  Cr  Se  N  
   2   2   2   1
Direct
  0.6666700000000001  0.3333400000000000  0.5813199999999999
  0.3333300000000001  0.6666600000000000  0.4186800000000000
  0.6666700000000001  0.3333300000000000  0.9181800000000000
  0.3333300000000001  0.6666700000000000  0.0818200000000000
  0.6666700000000001  0.3333300000000000  0.2462600000000000
  0.3333300000000001  0.6666700000000000  0.7537400000000000
  0.0000000000000000  0.0000000000000000  0.0000000000000000
