Mn Hf  N  S 
 1.0000000000000000
     3.3029999999999999    0.0000000000000000    0.0000000000000000
    -1.6514999999999991    2.8604819087000011    0.0000000000000000
     0.0000000000000000    0.0000000000000000   25.8299999999999983
 Mn  Hf  N   S  
   3   6   3   6
Direct
  0.0000000000000000  0.0000000000000000  0.0000000000000000
  0.6666600000000000  0.3333400000000000  0.3333100000000000
  0.3333400000000000  0.6666600000000000  0.6666900000000001
  0.0000000000000000  0.0000000000000000  0.8627900000000001
  0.0000000000000000  0.0000000000000000  0.1372100000000000
  0.6666700000000000  0.3333300000000000  0.1959900000000000
  0.6666700000000000  0.3333300000000000  0.4706100000000000
  0.3333300000000000  0.6666700000000000  0.5293900000000000
  0.3333300000000000  0.6666700000000000  0.8040100000000001
  0.0000000000000000  0.0000000000000000  0.5000000000000000
  0.6666600000000000  0.3333400000000000  0.8333900000000000
  0.3333400000000000  0.6666600000000000  0.1666100000000000
  0.0000400000000001  0.9999600000000000  0.7088800000000000
  0.9999600000000000  0.0000400000000000  0.2911200000000000
  0.6666999999999998  0.3333000000000000  0.0422100000000000
  0.6666299999999999  0.3333700000000000  0.6244200000000000
  0.3333700000000000  0.6666299999999999  0.3755800000000000
  0.3332999999999999  0.6667000000000000  0.9577900000000000
