Re As Te 
 1.0000000000000000
     3.3435999999999999    0.0000000000000000    0.0000000000000000
    -1.6717999999999993    2.8956425400936490    0.0000000000000000
     0.0000000000000000    0.0000000000000000   11.5808999999999997
 Re  As  Te 
   4   2   2
Direct
  0.3007399999999999  0.6992599999999998  0.3976199999999999
  0.6992599999999998  0.3007400000000000  0.6023800000000000
  0.6562099999999998  0.3437900000000000  0.9023499999999999
  0.3437899999999999  0.6562099999999998  0.0976500000000000
  0.0000000000000000  0.0000000000000000  0.0000000000000000
  0.0000000000000000  0.0000000000000000  0.5000000000000000
  0.3198799999999999  0.6801199999999998  0.7453300000000000
  0.6801199999999999  0.3198800000000000  0.2546700000000000
