Ag Hf  C  S
 1.0000000000000000
     3.3029999999999999    0.0000000000000000    0.0000000000000000
    -1.6514999999999991    2.8604819087000011    0.0000000000000000
     0.0000000000000000    0.0000000000000000   25.8299999999999983
 Ag  Hf  C   S
   3   6   3   6
Direct
  0.0000000000000000  0.0000000000000000  0.0000000000000000
  0.6666700000000000  0.3333300000000000  0.3333300000000001
  0.3333300000000000  0.6666700000000000  0.6666700000000001
  0.0000000000000000  0.0000000000000000  0.8789600000000000
  0.0000000000000000  0.0000000000000000  0.1210400000000000
  0.6666700000000000  0.3333300000000000  0.2122900000000000
  0.6666700000000000  0.3333300000000000  0.4543800000000000
  0.3333300000000000  0.6666700000000000  0.5456200000000000
  0.3333300000000000  0.6666700000000000  0.7877100000000000
  0.0000000000000000  0.0000000000000000  0.5000000000000000
  0.6666700000000000  0.3333300000000000  0.8333300000000000
  0.3333300000000000  0.6666700000000000  0.1666700000000000
  0.0000000000000000  0.0000000000000000  0.7274200000000000
  0.0000000000000000  0.0000000000000000  0.2725800000000000
  0.6666700000000000  0.3333300000000000  0.0607600000000000
  0.6666700000000000  0.3333300000000000  0.6059099999999999
  0.3333300000000000  0.6666700000000000  0.3940900000000000
  0.3333300000000000  0.6666700000000000  0.9392400000000001
