Co Cu  N Se 
 1.0000000000000000
     3.3029999999999999    0.0000000000000000    0.0000000000000000
    -1.6514999999999991    2.8604819087000011    0.0000000000000000
     0.0000000000000000    0.0000000000000000   25.8299999999999983
 Co  Cu  N   Se 
   3   6   3   6
Direct
  0.0000000000000000  0.0000000000000000  0.0000000000000000
  0.6666700000000000  0.3333300000000000  0.3333300000000001
  0.3333300000000000  0.6666700000000000  0.6666700000000001
  0.0000000000000000  0.0000000000000000  0.8790300000000000
  0.0000000000000000  0.0000000000000000  0.1209700000000000
  0.6666700000000000  0.3333300000000000  0.2123200000000000
  0.6666700000000000  0.3333300000000000  0.4543300000000001
  0.3333300000000000  0.6666700000000000  0.5456700000000000
  0.3333300000000000  0.6666700000000000  0.7876800000000000
  0.0000000000000000  0.0000000000000000  0.5000000000000000
  0.6666800000000001  0.3333200000000000  0.8335100000000001
  0.3333200000000000  0.6666800000000001  0.1664900000000000
  0.0000100000000001  0.9999900000000002  0.7184100000000000
  0.9999899999999998  0.0000100000000000  0.2815900000000000
  0.6666800000000001  0.3333200000000000  0.0517400000000000
  0.6666499999999999  0.3333500000000000  0.6149300000000000
  0.3333499999999999  0.6666500000000000  0.3850700000000000
  0.3333200000000000  0.6666800000000001  0.9482600000000001
