Cu  V  C Te
 1.0000000000000000
     3.3029999999999999    0.0000000000000000    0.0000000000000000
    -1.6514999999999993    2.8604819087000011    0.0000000000000000
     0.0000000000000000    0.0000000000000000   25.8299999999999983
 Cu  V   C   Te
   3   6   3   6
Direct
  0.0000000000000000  0.0000000000000000  0.0000000000000000
  0.6666600000000000  0.3333400000000000  0.3333300000000001
  0.3333400000000000  0.6666600000000000  0.6666700000000001
  0.0000000000000000  0.0000000000000000  0.8582100000000000
  0.0000000000000000  0.0000000000000000  0.1417900000000000
  0.6666600000000000  0.3333400000000000  0.1915500000000000
  0.6666700000000000  0.3333300000000000  0.4751200000000000
  0.3333300000000000  0.6666700000000000  0.5248800000000000
  0.3333400000000000  0.6666600000000000  0.8084500000000000
  0.0000000000000000  0.0000000000000000  0.5000000000000000
  0.6666700000000000  0.3333300000000000  0.8333300000000000
  0.3333300000000000  0.6666700000000000  0.1666700000000000
  0.0000100000000001  0.9999900000000002  0.7409200000000000
  0.9999899999999998  0.0000100000000000  0.2590800000000000
  0.6666700000000000  0.3333300000000000  0.0742500000000000
  0.6666800000000001  0.3333200000000000  0.5924100000000000
  0.3333200000000000  0.6666800000000001  0.4075900000000000
  0.3333300000000000  0.6666700000000000  0.9257500000000001
