Ag Ti  C Se
 1.0000000000000000
     3.3029999999999999    0.0000000000000000    0.0000000000000000
    -1.6514999999999991    2.8604819087000011    0.0000000000000000
     0.0000000000000000    0.0000000000000000   25.8299999999999983
 Ag  Ti  C   Se
   3   6   3   6
Direct
  0.0000000000000000  0.0000000000000000  0.0000000000000000
  0.6666700000000000  0.3333300000000000  0.3333300000000001
  0.3333300000000000  0.6666700000000000  0.6666700000000001
  0.0000000000000000  0.0000000000000000  0.8727000000000000
  0.0000000000000000  0.0000000000000000  0.1273000000000000
  0.6666700000000000  0.3333300000000000  0.2060300000000000
  0.6666700000000000  0.3333300000000000  0.4606400000000000
  0.3333300000000000  0.6666700000000000  0.5393600000000000
  0.3333300000000000  0.6666700000000000  0.7939700000000000
  0.0000000000000000  0.0000000000000000  0.5000000000000000
  0.6666700000000000  0.3333300000000000  0.8333300000000000
  0.3333300000000000  0.6666700000000000  0.1666700000000000
  0.0000000000000000  0.0000000000000000  0.7335900000000000
  0.0000000000000000  0.0000000000000000  0.2664100000000000
  0.6666700000000000  0.3333300000000000  0.0669300000000000
  0.6666700000000000  0.3333300000000000  0.5997400000000001
  0.3333300000000000  0.6666700000000000  0.4002600000000000
  0.3333300000000000  0.6666700000000000  0.9330700000000000
