Ca Pt  N  S 
 1.0000000000000000
     3.3029999999999999    0.0000000000000000    0.0000000000000000
    -1.6514999999999991    2.8604819087000011    0.0000000000000000
     0.0000000000000000    0.0000000000000000   25.8299999999999983
 Ca  Pt  N   S  
   3   6   3   6
Direct
  0.0000000000000000  0.0000000000000000  0.0000000000000000
  0.6670500000000000  0.3329500000000000  0.2990000000000000
  0.3329499999999999  0.6670500000000000  0.7010000000000000
  0.0002400000000000  0.9997600000000000  0.8899500000000000
  0.9997599999999998  0.0002400000000000  0.1100500000000000
  0.6667700000000000  0.3332300000000000  0.2010800000000000
  0.6666700000000000  0.3333300000000000  0.4546600000000001
  0.3333300000000000  0.6666700000000000  0.5453400000000000
  0.3332300000000000  0.6667700000000000  0.7989200000000000
  0.0000000000000000  0.0000000000000000  0.5000000000000000
  0.6672600000000000  0.3327400000000000  0.8500000000000000
  0.3327400000000000  0.6672600000000000  0.1500000000000000
  0.9995600000000000  0.0004400000000000  0.7359100000000000
  0.0004400000000000  0.9995600000000000  0.2640900000000000
  0.6666499999999999  0.3333500000000000  0.0593500000000000
  0.6666499999999999  0.3333500000000000  0.5948800000000000
  0.3333499999999999  0.6666500000000000  0.4051200000000000
  0.3333499999999999  0.6666500000000000  0.9406500000000000
