Sc Mn  C Se
 1.0000000000000000
     3.3029999999999999    0.0000000000000000    0.0000000000000000
    -1.6514999999999991    2.8604819087000011    0.0000000000000000
     0.0000000000000000    0.0000000000000000   25.8299999999999983
 Sc  Mn  C   Se
   3   6   3   6
Direct
  0.0000000000000000  0.0000000000000000  0.0000000000000000
  0.6666700000000000  0.3333300000000000  0.3333300000000001
  0.3333300000000000  0.6666700000000000  0.6666700000000001
  0.0000000000000000  0.0000000000000000  0.8657400000000001
  0.0000000000000000  0.0000000000000000  0.1342600000000000
  0.6666700000000000  0.3333300000000000  0.1990700000000000
  0.6666700000000000  0.3333300000000000  0.4675900000000001
  0.3333300000000000  0.6666700000000000  0.5324100000000000
  0.3333300000000000  0.6666700000000000  0.8009300000000000
  0.0000000000000000  0.0000000000000000  0.5000000000000000
  0.6666700000000000  0.3333300000000000  0.8333300000000000
  0.3333300000000000  0.6666700000000000  0.1666700000000000
  0.0000000000000000  0.0000000000000000  0.7348500000000000
  0.0000000000000000  0.0000000000000000  0.2651500000000000
  0.6666700000000000  0.3333300000000000  0.0681800000000000
  0.6666700000000000  0.3333300000000000  0.5984900000000000
  0.3333300000000000  0.6666700000000000  0.4015100000000000
  0.3333300000000000  0.6666700000000000  0.9318200000000000
