Cu Zn  N  S 
 1.0000000000000000
     3.3029999999999999    0.0000000000000000    0.0000000000000000
    -1.6514999999999991    2.8604819087000011    0.0000000000000000
     0.0000000000000000    0.0000000000000000   25.8299999999999983
 Cu  Zn  N   S  
   3   6   3   6
Direct
  0.0000000000000000  0.0000000000000000  0.0000000000000000
  0.6666700000000000  0.3333300000000000  0.3333300000000001
  0.3333300000000000  0.6666700000000000  0.6666700000000001
  0.0000000000000000  0.0000000000000000  0.8792600000000000
  0.0000000000000000  0.0000000000000000  0.1207400000000000
  0.6666800000000001  0.3333200000000000  0.2125500000000000
  0.6666600000000000  0.3333400000000000  0.4541000000000000
  0.3333400000000000  0.6666600000000000  0.5459000000000001
  0.3333200000000000  0.6666800000000001  0.7874500000000000
  0.0000000000000000  0.0000000000000000  0.5000000000000000
  0.6666700000000000  0.3333300000000000  0.8334600000000000
  0.3333300000000000  0.6666700000000000  0.1665400000000000
  0.9999899999999998  0.0000100000000000  0.7226800000000000
  0.0000100000000001  0.9999900000000002  0.2773200000000000
  0.6666700000000000  0.3333300000000000  0.0560300000000000
  0.6666700000000000  0.3333300000000000  0.6106400000000000
  0.3333300000000000  0.6666700000000000  0.3893600000000001
  0.3333300000000000  0.6666700000000000  0.9439700000000000
