Cu Te As 
 1.0000000000000000
     3.2709999999999999    0.0000000000000000    0.0000000000000000
    -1.6354999999999993    2.8327690957788989    0.0000000000000000
     0.0000000000000000    0.0000000000000000   25.4780000000000015
 Cu  Te  As 
   6   6   3
Direct
  0.0000000000000000  0.0000000000000000  0.6112800000000000
  0.9999999999999997  0.9999999999999998  0.3887200000000000
  0.6666700000000000  0.3333300000000000  0.9446099999999997
  0.6666700000000000  0.3333300000000000  0.7220600000000000
  0.3333300000000000  0.6666700000000000  0.2779400000000000
  0.3333300000000000  0.6666700000000000  0.0553900000000000
  0.0000199999999999  0.9999799999999998  0.7876100000000000
  0.9999800000000000  0.0000200000000000  0.2123900000000000
  0.6666700000000000  0.3333300000000000  0.1209400000000000
  0.6666900000000000  0.3333099999999999  0.5457200000000000
  0.3333100000000000  0.6666900000000000  0.4542800000000000
  0.3333300000000000  0.6666700000000000  0.8790599999999998
  0.0000000000000000  0.0000000000000000  0.0000000000000000
  0.6666900000000000  0.3333099999999999  0.3333300000000000
  0.3333100000000000  0.6666900000000000  0.6666699999999999
