 V Te  P 
 1.0000000000000000
     3.2709999999999999    0.0000000000000000    0.0000000000000000
    -1.6354999999999993    2.8327690957788989    0.0000000000000000
     0.0000000000000000    0.0000000000000000   25.4780000000000015
 V   Te  P  
   6   6   3
Direct
  0.0000000000000000  0.0000000000000000  0.6365000000000000
  0.9999999999999997  0.9999999999999998  0.3635000000000000
  0.6666700000000000  0.3333300000000000  0.9698299999999997
  0.6666700000000000  0.3333300000000000  0.6968400000000000
  0.3333300000000000  0.6666700000000000  0.3031600000000000
  0.3333300000000000  0.6666700000000000  0.0301700000000000
  0.9999900000000000  0.0000100000000000  0.7710499999999998
  0.0000100000000000  0.9999899999999999  0.2289500000000000
  0.6666900000000000  0.3333099999999999  0.1043900000000000
  0.6666800000000001  0.3333199999999999  0.5622800000000000
  0.3333199999999999  0.6666800000000001  0.4377199999999999
  0.3333100000000000  0.6666900000000000  0.8956100000000000
  0.0000000000000000  0.0000000000000000  0.0000000000000000
  0.6666700000000000  0.3333300000000000  0.3333300000000000
  0.3333300000000000  0.6666700000000000  0.6666699999999999
