Ca Hg Se  N 
 1.0000000000000000
     3.3121000000000000    0.0000000000000000    0.0000000000000000
    -1.6560499999999994    2.8683627398744393    0.0000000000000000
     0.0000000000000000    0.0000000000000000    9.0113000000000003
 Ca  Hg  Se  N  
   2   2   2   1
Direct
  0.6666700000000001  0.3333300000000000  0.5657500000000000
  0.3333300000000001  0.6666700000000000  0.4342500000000000
  0.6666700000000001  0.3333300000000000  0.8875400000000000
  0.3333300000000001  0.6666700000000000  0.1124600000000000
  0.6666700000000001  0.3333300000000000  0.2785300000000000
  0.3333300000000001  0.6666700000000000  0.7214699999999999
  0.0000000000000000  0.0000000000000000  0.0000000000000000
