Ag  S Bi 
 1.0000000000000000
     3.2690000000000001    0.0000000000000000    0.0000000000000000
    -1.6344999999999994    2.8310370449713305    0.0000000000000000
     0.0000000000000000    0.0000000000000000    8.5470000000000006
 Ag  S   Bi 
   2   2   1
Direct
  0.0001700000000000  0.5000900000000000  0.7460200000000000
  0.9998300000000001  0.4999100000000001  0.2539800000000000
  0.6289199999999998  0.3144600000000000  0.5000599999999999
  0.3710800000000000  0.6855400000000001  0.4999400000000000
  0.0000000000000000  0.0000000000000000  0.0000000000000000
