Ti  S Sn 
 1.0000000000000000
     3.2709999999999999    0.0000000000000000    0.0000000000000000
    -1.6354999999999993    2.8327690957788989    0.0000000000000000
     0.0000000000000000    0.0000000000000000   25.4780000000000015
 Ti  S   Sn 
   6   6   3
Direct
  0.0000700000000000  0.9999300000000000  0.5693000000000000
  0.9999299999999999  0.0000700000000000  0.4307000000000000
  0.6666700000000000  0.3333300000000000  0.9026400000000000
  0.6667400000000000  0.3332600000000000  0.7640400000000001
  0.3332600000000000  0.6667400000000000  0.2359600000000000
  0.3333300000000000  0.6666700000000000  0.0973600000000000
  0.0000599999999999  0.9999399999999998  0.7870400000000000
  0.9999400000000001  0.0000600000000000  0.2129600000000000
  0.6666500000000000  0.3333500000000000  0.1203600000000000
  0.6667100000000000  0.3332900000000000  0.5462900000000001
  0.3332900000000000  0.6667100000000000  0.4537100000000000
  0.3333499999999999  0.6666499999999999  0.8796399999999998
  0.0000000000000000  0.0000000000000000  0.0000000000000000
  0.6669500000000000  0.3330500000000000  0.3333400000000000
  0.3330500000000000  0.6669499999999999  0.6666599999999999
