Zn  Y  N  S 
 1.0000000000000000
     3.3029999999999999    0.0000000000000000    0.0000000000000000
    -1.6514999999999991    2.8604819087000011    0.0000000000000000
     0.0000000000000000    0.0000000000000000   25.8299999999999983
 Zn  Y   N   S  
   3   6   3   6
Direct
  0.0000000000000000  0.0000000000000000  0.0000000000000000
  0.4173100000000000  0.5826900000000000  0.3323600000000000
  0.5826900000000000  0.4173100000000000  0.6676400000000000
  0.9385800000000000  0.0614200000000000  0.8599400000000000
  0.0614200000000000  0.9385800000000001  0.1400600000000000
  0.7360400000000000  0.2639600000000000  0.2046800000000001
  0.5277400000000000  0.4722600000000000  0.4514400000000000
  0.4722600000000000  0.5277400000000000  0.5485600000000000
  0.2639600000000000  0.7360400000000000  0.7953200000000000
  0.0000000000000000  0.0000000000000000  0.5000000000000000
  0.6032199999999999  0.3967800000000000  0.8708300000000000
  0.3967799999999999  0.6032200000000000  0.1291700000000000
  0.9356699999999998  0.0643300000000000  0.7640200000000000
  0.0643300000000000  0.9356700000000000  0.2359800000000000
  0.6359600000000000  0.3640400000000000  0.0930200000000000
  0.7950500000000000  0.2049500000000000  0.5757500000000000
  0.2049500000000000  0.7950500000000000  0.4242500000000000
  0.3640400000000000  0.6359600000000000  0.9069800000000001
