Mo Se Ga 
 1.0000000000000000
     3.2709999999999999    0.0000000000000000    0.0000000000000000
    -1.6354999999999993    2.8327690957788989    0.0000000000000000
     0.0000000000000000    0.0000000000000000   25.4780000000000015
 Mo  Se  Ga 
   6   6   3
Direct
  0.9999900000000000  0.0000100000000000  0.5802000000000000
  0.0000100000000000  0.9999899999999999  0.4198000000000000
  0.6666800000000001  0.3333199999999999  0.9135100000000000
  0.6666700000000000  0.3333300000000000  0.7531300000000000
  0.3333300000000000  0.6666700000000000  0.2468700000000000
  0.3333199999999999  0.6666800000000001  0.0864900000000000
  0.0000100000000000  0.9999899999999999  0.7833300000000000
  0.9999900000000000  0.0000100000000000  0.2166700000000000
  0.6666399999999999  0.3333600000000000  0.1167000000000000
  0.6666600000000000  0.3333400000000000  0.5500000000000000
  0.3333400000000000  0.6666600000000000  0.4500000000000000
  0.3333600000000000  0.6666399999999999  0.8833000000000000
  0.0000000000000000  0.0000000000000000  0.0000000000000000
  0.6666500000000000  0.3333500000000000  0.3333400000000000
  0.3333499999999999  0.6666499999999999  0.6666599999999999
