Os  B Se 
 1.0000000000000000
     3.3435999999999999    0.0000000000000000    0.0000000000000000
    -1.6717999999999993    2.8956425400936490    0.0000000000000000
     0.0000000000000000    0.0000000000000000   11.5808999999999997
 Os  B   Se 
   4   2   2
Direct
  0.3104199999999999  0.6895799999999999  0.4117300000000000
  0.6895799999999999  0.3104200000000000  0.5882700000000000
  0.6895599999999998  0.3104400000000000  0.9117400000000000
  0.3104400000000000  0.6895600000000000  0.0882600000000000
  0.0000000000000000  0.0000000000000000  0.0000000000000000
  0.0000000000000000  0.0000000000000000  0.5000000000000000
  0.3030400000000000  0.6969600000000000  0.7499900000000002
  0.6969600000000000  0.3030399999999999  0.2500100000000000
