Ti  S  C 
 1.0000000000000000
     3.3121000000000000    0.0000000000000000    0.0000000000000000
    -1.6560499999999991    2.8683627398744393    0.0000000000000000
     0.0000000000000000    0.0000000000000000    9.0113000000000003
 Ti  S   C  
   4   2   1
Direct
  0.6666700000000001  0.3333300000000000  0.5881200000000000
  0.3333300000000001  0.6666700000000000  0.4118800000000000
  0.6666600000000003  0.3333300000000000  0.8923700000000001
  0.3333400000000000  0.6666700000000000  0.1076300000000000
  0.6666700000000001  0.3333300000000000  0.2714400000000000
  0.3333300000000001  0.6666700000000000  0.7285600000000000
  0.0000000000000000  0.0000000000000000  0.0000000000000000
