Re  S Sn 
 1.0000000000000000
     3.2690000000000001    0.0000000000000000    0.0000000000000000
    -1.6344999999999994    2.8310370449713305    0.0000000000000000
     0.0000000000000000    0.0000000000000000    8.5470000000000006
 Re  S   Sn 
   2   2   1
Direct
  0.6668899999999999  0.3334500000000000  0.6702700000000000
  0.3331100000000001  0.6665500000000001  0.3297300000000000
  0.6665500000000000  0.3332700000000000  0.4401500000000000
  0.3334500000000000  0.6667300000000002  0.5598499999999998
  0.0000000000000000  0.0000000000000000  0.0000000000000000
