Nb Se Sb 
 1.0000000000000000
     3.2690000000000001    0.0000000000000000    0.0000000000000000
    -1.6344999999999994    2.8310370449713305    0.0000000000000000
     0.0000000000000000    0.0000000000000000    8.5470000000000006
 Nb  Se  Sb 
   2   2   1
Direct
  0.4759200000000000  0.2379600000000001  0.7540000000000000
  0.5240800000000000  0.7620400000000003  0.2460000000000000
  0.8331799999999998  0.4165900000000001  0.3411400000000000
  0.1668200000000000  0.5834100000000000  0.6588600000000000
  0.0000000000000000  0.0000000000000000  0.0000000000000000
