Os Se Al 
 1.0000000000000000
     3.2690000000000001    0.0000000000000000    0.0000000000000000
    -1.6344999999999994    2.8310370449713305    0.0000000000000000
     0.0000000000000000    0.0000000000000000    8.5470000000000006
 Os  Se  Al 
   2   2   1
Direct
  0.6608399999999998  0.3304200000000000  0.8565500000000000
  0.3391600000000000  0.6695800000000001  0.1434500000000000
  0.3503299999999999  0.1751600000000000  0.3246399999999999
  0.6496700000000000  0.8248400000000000  0.6753600000000000
  0.0000000000000000  0.0000000000000000  0.0000000000000000
