 Y  S In 
 1.0000000000000000
     3.2709999999999999    0.0000000000000000    0.0000000000000000
    -1.6354999999999993    2.8327690957788989    0.0000000000000000
     0.0000000000000000    0.0000000000000000   25.4780000000000015
 Y   S   In 
   6   6   3
Direct
  0.0000000000000000  0.0000000000000000  0.5697100000000000
  0.9999999999999997  0.9999999999999998  0.4302900000000000
  0.6666500000000000  0.3333500000000000  0.9030400000000000
  0.6666600000000000  0.3333400000000000  0.7636299999999999
  0.3333400000000000  0.6666600000000000  0.2363700000000000
  0.3333499999999999  0.6666499999999999  0.0969600000000000
  0.0000399999999999  0.9999599999999998  0.7893099999999998
  0.9999600000000000  0.0000400000000000  0.2106900000000000
  0.6667299999999999  0.3332700000000000  0.1226400000000000
  0.6666399999999999  0.3333600000000000  0.5440300000000000
  0.3333600000000000  0.6666399999999999  0.4559699999999999
  0.3332700000000000  0.6667299999999999  0.8773600000000000
  0.0000000000000000  0.0000000000000000  0.0000000000000000
  0.6666700000000000  0.3333300000000000  0.3333400000000000
  0.3333300000000000  0.6666700000000000  0.6666599999999999
