Mg Cr  C  S
 1.0000000000000000
     3.3029999999999999    0.0000000000000000    0.0000000000000000
    -1.6514999999999991    2.8604819087000011    0.0000000000000000
     0.0000000000000000    0.0000000000000000   25.8299999999999983
 Mg  Cr  C   S
   3   6   3   6
Direct
  0.0000000000000000  0.0000000000000000  0.0000000000000000
  0.6666700000000000  0.3333300000000000  0.3333300000000001
  0.3333300000000000  0.6666700000000000  0.6666700000000001
  0.0000000000000000  0.0000000000000000  0.8691800000000000
  0.0000000000000000  0.0000000000000000  0.1308200000000000
  0.6666700000000000  0.3333300000000000  0.2025100000000000
  0.6666700000000000  0.3333300000000000  0.4641500000000000
  0.3333300000000000  0.6666700000000000  0.5358500000000000
  0.3333300000000000  0.6666700000000000  0.7974900000000000
  0.0000000000000000  0.0000000000000000  0.5000000000000000
  0.6666700000000000  0.3333300000000000  0.8333300000000000
  0.3333300000000000  0.6666700000000000  0.1666700000000000
  0.0000100000000001  0.9999900000000002  0.7332000000000000
  0.9999899999999998  0.0000100000000000  0.2668000000000000
  0.6666700000000000  0.3333300000000000  0.0665400000000000
  0.6666600000000000  0.3333400000000000  0.6001300000000001
  0.3333400000000000  0.6666600000000000  0.3998700000000000
  0.3333300000000000  0.6666700000000000  0.9334600000000000
