 V Pt  C Te
 1.0000000000000000
     3.3029999999999999    0.0000000000000000    0.0000000000000000
    -1.6514999999999993    2.8604819087000011    0.0000000000000000
     0.0000000000000000    0.0000000000000000   25.8299999999999983
 V   Pt  C   Te
   3   6   3   6
Direct
  0.0000000000000000  0.0000000000000000  0.0000000000000000
  0.8567000000000000  0.1433000000000000  0.3211000000000000
  0.1432999999999999  0.8567000000000000  0.6789000000000001
  0.8631799999999999  0.1368200000000000  0.8674100000000001
  0.1368200000000001  0.8631800000000001  0.1325900000000000
  0.8342899999999999  0.1657100000000000  0.2197500000000000
  0.6777900000000000  0.3222100000000000  0.4560900000000000
  0.3222100000000000  0.6777900000000000  0.5439100000000000
  0.1657100000000001  0.8342900000000001  0.7802500000000000
  0.0000000000000000  0.0000000000000000  0.5000000000000000
  0.3940900000000000  0.6059099999999999  0.8355200000000000
  0.6059099999999999  0.3940900000000001  0.1644800000000000
  0.8204600000000000  0.1795400000000000  0.7163900000000001
  0.1795400000000000  0.8204600000000000  0.2836100000000000
  0.6695600000000000  0.3304400000000000  0.0580100000000000
  0.6396300000000000  0.3603700000000000  0.6092300000000000
  0.3603700000000000  0.6396300000000000  0.3907700000000000
  0.3304400000000000  0.6695600000000000  0.9419900000000000
