 V Zn  C Te
 1.0000000000000000
     3.3029999999999999    0.0000000000000000    0.0000000000000000
    -1.6514999999999993    2.8604819087000011    0.0000000000000000
     0.0000000000000000    0.0000000000000000   25.8299999999999983
 V   Zn  C   Te
   3   6   3   6
Direct
  0.0000000000000000  0.0000000000000000  0.0000000000000000
  0.7084400000000000  0.2915600000000000  0.3178800000000000
  0.2915599999999999  0.7084400000000000  0.6821199999999999
  0.9253000000000000  0.0747000000000000  0.8649000000000000
  0.0747000000000000  0.9253000000000000  0.1351000000000000
  0.6918699999999999  0.3081300000000000  0.1973900000000000
  0.5215400000000000  0.4784600000000001  0.4562600000000000
  0.4784600000000000  0.5215400000000000  0.5437400000000000
  0.3081299999999999  0.6918700000000000  0.8026100000000000
  0.0000000000000000  0.0000000000000000  0.5000000000000000
  0.8012699999999999  0.1987300000000000  0.7908200000000000
  0.1987300000000000  0.8012700000000000  0.2091800000000000
  0.9717399999999998  0.0282600000000000  0.7249100000000001
  0.0282600000000000  0.9717400000000000  0.2750900000000000
  0.6648899999999998  0.3351100000000000  0.0504700000000000
  0.7689299999999999  0.2310700000000000  0.6206600000000000
  0.2310700000000001  0.7689300000000001  0.3793400000000000
  0.3351100000000000  0.6648900000000000  0.9495300000000001
