Ir Te Sb 
 1.0000000000000000
     3.2709999999999999    0.0000000000000000    0.0000000000000000
    -1.6354999999999993    2.8327690957788989    0.0000000000000000
     0.0000000000000000    0.0000000000000000   25.4780000000000015
 Ir  Te  Sb 
   6   6   3
Direct
  0.9999999999999997  0.9999999999999998  0.6063000000000000
  0.0000000000000000  0.0000000000000000  0.3937000000000000
  0.6666700000000000  0.3333300000000000  0.9396299999999999
  0.6666700000000000  0.3333300000000000  0.7270400000000000
  0.3333300000000000  0.6666700000000000  0.2729600000000000
  0.3333300000000000  0.6666700000000000  0.0603700000000000
  0.9999999999999997  0.9999999999999998  0.7853300000000000
  0.0000000000000000  0.0000000000000000  0.2146700000000000
  0.6666700000000000  0.3333300000000000  0.1186700000000000
  0.6666700000000000  0.3333300000000000  0.5480000000000000
  0.3333300000000000  0.6666700000000000  0.4519999999999999
  0.3333300000000000  0.6666700000000000  0.8813299999999999
  0.0000000000000000  0.0000000000000000  0.0000000000000000
  0.6666700000000000  0.3333300000000000  0.3333300000000000
  0.3333300000000000  0.6666700000000000  0.6666699999999999
