Ir Te As 
 1.0000000000000000
     3.2709999999999999    0.0000000000000000    0.0000000000000000
    -1.6354999999999993    2.8327690957788989    0.0000000000000000
     0.0000000000000000    0.0000000000000000   25.4780000000000015
 Ir  Te  As 
   6   6   3
Direct
  0.9999999999999997  0.9999999999999998  0.6122700000000000
  0.0000000000000000  0.0000000000000000  0.3877300000000000
  0.6666700000000000  0.3333300000000000  0.9456099999999997
  0.6666700000000000  0.3333300000000000  0.7210600000000000
  0.3333300000000000  0.6666700000000000  0.2789400000000000
  0.3333300000000000  0.6666700000000000  0.0543900000000000
  0.9999999999999997  0.9999999999999998  0.7796700000000000
  0.0000000000000000  0.0000000000000000  0.2203300000000000
  0.6666700000000000  0.3333300000000000  0.1130000000000000
  0.6666700000000000  0.3333300000000000  0.5536700000000000
  0.3333300000000000  0.6666700000000000  0.4463299999999999
  0.3333300000000000  0.6666700000000000  0.8869999999999999
  0.0000000000000000  0.0000000000000000  0.0000000000000000
  0.6666700000000000  0.3333300000000000  0.3333300000000000
  0.3333300000000000  0.6666700000000000  0.6666699999999999
