Fe Zr  N  S 
 1.0000000000000000
     3.3029999999999999    0.0000000000000000    0.0000000000000000
    -1.6514999999999991    2.8604819087000011    0.0000000000000000
     0.0000000000000000    0.0000000000000000   25.8299999999999983
 Fe  Zr  N   S  
   3   6   3   6
Direct
  0.0000000000000000  0.0000000000000000  0.0000000000000000
  0.6666600000000000  0.3333400000000000  0.3333200000000000
  0.3333400000000000  0.6666600000000000  0.6666800000000002
  0.0000000000000000  0.0000000000000000  0.8621000000000000
  0.0000000000000000  0.0000000000000000  0.1379000000000000
  0.6666700000000000  0.3333300000000000  0.1953700000000000
  0.6666700000000000  0.3333300000000000  0.4712600000000000
  0.3333300000000000  0.6666700000000000  0.5287400000000000
  0.3333300000000000  0.6666700000000000  0.8046300000000001
  0.0000000000000000  0.0000000000000000  0.5000000000000000
  0.6666600000000000  0.3333400000000000  0.8333800000000000
  0.3333400000000000  0.6666600000000000  0.1666200000000000
  0.0000400000000001  0.9999600000000000  0.7119900000000000
  0.9999600000000000  0.0000400000000000  0.2880100000000000
  0.6666999999999998  0.3333000000000000  0.0453100000000000
  0.6666299999999999  0.3333700000000000  0.6213400000000000
  0.3333700000000000  0.6666299999999999  0.3786600000000000
  0.3332999999999999  0.6667000000000000  0.9546900000000000
