Zn Te Bi 
 1.0000000000000000
     3.2709999999999999    0.0000000000000000    0.0000000000000000
    -1.6354999999999993    2.8327690957788989    0.0000000000000000
     0.0000000000000000    0.0000000000000000   25.4780000000000015
 Zn  Te  Bi 
   6   6   3
Direct
  0.0000000000000000  0.0000000000000000  0.5939500000000000
  0.9999999999999997  0.9999999999999998  0.4060500000000000
  0.6666700000000000  0.3333300000000000  0.9272800000000000
  0.6666700000000000  0.3333300000000000  0.7393900000000000
  0.3333300000000000  0.6666700000000000  0.2606100000000000
  0.3333300000000000  0.6666700000000000  0.0727200000000000
  0.9999999999999997  0.9999999999999998  0.8004200000000000
  0.0000000000000000  0.0000000000000000  0.1995800000000000
  0.6666700000000000  0.3333300000000000  0.1337600000000000
  0.6666700000000000  0.3333300000000000  0.5329100000000000
  0.3333300000000000  0.6666700000000000  0.4670900000000000
  0.3333300000000000  0.6666700000000000  0.8662400000000000
  0.0000000000000000  0.0000000000000000  0.0000000000000000
  0.6666500000000000  0.3333500000000000  0.3333300000000000
  0.3333499999999999  0.6666499999999999  0.6666699999999999
