Hg  S As 
 1.0000000000000000
     3.2709999999999999    0.0000000000000000    0.0000000000000000
    -1.6354999999999993    2.8327690957788989    0.0000000000000000
     0.0000000000000000    0.0000000000000000   25.4780000000000015
 Hg  S   As 
   6   6   3
Direct
  0.0018199999999999  0.9981799999999997  0.5818900000000000
  0.9981799999999998  0.0018200000000000  0.4181100000000000
  0.6683700000000000  0.3316300000000000  0.9153099999999997
  0.6609600000000000  0.3390400000000000  0.7511200000000000
  0.3390400000000000  0.6609599999999999  0.2488800000000000
  0.3316300000000000  0.6683700000000000  0.0846900000000000
  0.0163599999999999  0.9836399999999997  0.8283600000000000
  0.9836399999999998  0.0163600000000000  0.1716400000000000
  0.6860800000000000  0.3139200000000000  0.1618400000000000
  0.6490600000000000  0.3509399999999999  0.5047100000000000
  0.3509400000000000  0.6490600000000000  0.4952900000000000
  0.3139199999999999  0.6860800000000000  0.8381599999999999
  0.0000000000000000  0.0000000000000000  0.0000000000000000
  0.6707600000000000  0.3292399999999999  0.3335300000000000
  0.3292399999999999  0.6707599999999999  0.6664700000000000
