Mg  Y Se  C 
 1.0000000000000000
     3.3121000000000000    0.0000000000000000    0.0000000000000000
    -1.6560499999999991    2.8683627398744393    0.0000000000000000
     0.0000000000000000    0.0000000000000000    9.0113000000000003
 Mg  Y   Se  C  
   2   2   2   1
Direct
  0.6666700000000001  0.3333300000000000  0.5701600000000000
  0.3333300000000001  0.6666700000000000  0.4298400000000000
  0.6666700000000001  0.3333300000000000  0.8783000000000001
  0.3333300000000001  0.6666700000000000  0.1217000000000000
  0.6666700000000001  0.3333300000000000  0.3008800000000000
  0.3333300000000001  0.6666700000000000  0.6991200000000000
  0.0000000000000000  0.0000000000000000  0.0000000000000000
