 V Te In 
 1.0000000000000000
     3.2709999999999999    0.0000000000000000    0.0000000000000000
    -1.6354999999999993    2.8327690957788989    0.0000000000000000
     0.0000000000000000    0.0000000000000000   25.4780000000000015
 V   Te  In 
   6   6   3
Direct
  0.9999999999999997  0.9999999999999998  0.5828400000000000
  0.0000000000000000  0.0000000000000000  0.4171600000000000
  0.6666700000000000  0.3333300000000000  0.9161799999999998
  0.6666700000000000  0.3333300000000000  0.7504900000000000
  0.3333300000000000  0.6666700000000000  0.2495100000000000
  0.3333300000000000  0.6666700000000000  0.0838200000000000
  0.0000000000000000  0.0000000000000000  0.7818200000000000
  0.9999999999999997  0.9999999999999998  0.2181800000000000
  0.6666700000000000  0.3333300000000000  0.1151500000000000
  0.6666700000000000  0.3333300000000000  0.5515099999999999
  0.3333300000000000  0.6666700000000000  0.4484900000000000
  0.3333300000000000  0.6666700000000000  0.8848499999999998
  0.0000000000000000  0.0000000000000000  0.0000000000000000
  0.6666600000000000  0.3333400000000000  0.3333300000000000
  0.3333400000000000  0.6666600000000000  0.6666699999999999
