Zn Se  P 
 1.0000000000000000
     3.2709999999999999    0.0000000000000000    0.0000000000000000
    -1.6354999999999993    2.8327690957788989    0.0000000000000000
     0.0000000000000000    0.0000000000000000   25.4780000000000015
 Zn  Se  P  
   6   6   3
Direct
  0.0625300000000000  0.9374700000000000  0.5957100000000000
  0.9374699999999999  0.0625300000000000  0.4042899999999999
  0.6951600000000000  0.3048399999999999  0.9388800000000000
  0.6096700000000000  0.3903300000000000  0.7491000000000000
  0.3903300000000000  0.6096700000000000  0.2509000000000000
  0.3048399999999999  0.6951600000000000  0.0611200000000000
  0.0057000000000000  0.9943000000000000  0.8261099999999999
  0.9942999999999999  0.0057000000000000  0.1738900000000000
  0.7094300000000000  0.2905700000000000  0.1303400000000000
  0.6419800000000000  0.3580200000000000  0.5216300000000000
  0.3580199999999999  0.6419799999999999  0.4783700000000000
  0.2905699999999999  0.7094299999999999  0.8696600000000000
  0.0000000000000000  0.0000000000000000  0.0000000000000000
  0.6700199999999999  0.3299800000000000  0.3284799999999999
  0.3299800000000000  0.6700199999999999  0.6715200000000000
