 W  S As 
 1.0000000000000000
     3.2690000000000001    0.0000000000000000    0.0000000000000000
    -1.6344999999999994    2.8310370449713305    0.0000000000000000
     0.0000000000000000    0.0000000000000000    8.5470000000000006
 W   S   As 
   2   2   1
Direct
  0.3854299999999999  0.1927100000000000  0.7565499999999999
  0.6145699999999998  0.8072900000000000  0.2434500000000000
  0.9378399999999999  0.4689200000000000  0.3312100000000000
  0.0621599999999999  0.5310800000000000  0.6687900000000000
  0.0000000000000000  0.0000000000000000  0.0000000000000000
