Pd Se Ge 
 1.0000000000000000
     3.2709999999999999    0.0000000000000000    0.0000000000000000
    -1.6354999999999993    2.8327690957788989    0.0000000000000000
     0.0000000000000000    0.0000000000000000   25.4780000000000015
 Pd  Se  Ge 
   6   6   3
Direct
  0.9999999999999997  0.9999999999999998  0.5940299999999999
  0.0000000000000000  0.0000000000000000  0.4059699999999999
  0.6666600000000000  0.3333400000000000  0.9273600000000000
  0.6666600000000000  0.3333400000000000  0.7393100000000000
  0.3333400000000000  0.6666600000000000  0.2606900000000000
  0.3333400000000000  0.6666600000000000  0.0726400000000000
  0.9999999999999997  0.9999999999999998  0.8077900000000000
  0.0000000000000000  0.0000000000000000  0.1922100000000000
  0.6666700000000000  0.3333300000000000  0.1411200000000000
  0.6666600000000000  0.3333400000000000  0.5255400000000000
  0.3333400000000000  0.6666600000000000  0.4744599999999999
  0.3333300000000000  0.6666700000000000  0.8588799999999999
  0.0000000000000000  0.0000000000000000  0.0000000000000000
  0.6666600000000000  0.3333400000000000  0.3333400000000000
  0.3333400000000000  0.6666600000000000  0.6666599999999999
