Ag Pd  N  S 
 1.0000000000000000
     3.3029999999999999    0.0000000000000000    0.0000000000000000
    -1.6514999999999991    2.8604819087000011    0.0000000000000000
     0.0000000000000000    0.0000000000000000   25.8299999999999983
 Ag  Pd  N   S  
   3   6   3   6
Direct
  0.0000000000000000  0.0000000000000000  0.0000000000000000
  0.6666700000000000  0.3333300000000000  0.3333300000000001
  0.3333300000000000  0.6666700000000000  0.6666700000000001
  0.0000000000000000  0.0000000000000000  0.8777800000000000
  0.0000000000000000  0.0000000000000000  0.1222200000000000
  0.6666700000000000  0.3333300000000000  0.2110600000000000
  0.6666700000000000  0.3333300000000000  0.4555800000000000
  0.3333300000000000  0.6666700000000000  0.5444200000000000
  0.3333300000000000  0.6666700000000000  0.7889400000000000
  0.0000000000000000  0.0000000000000000  0.5000000000000000
  0.6666700000000000  0.3333300000000000  0.8335800000000000
  0.3333300000000000  0.6666700000000000  0.1664200000000000
  0.0000000000000000  0.0000000000000000  0.7374200000000000
  0.0000000000000000  0.0000000000000000  0.2625800000000000
  0.6666700000000000  0.3333300000000000  0.0707600000000000
  0.6666700000000000  0.3333300000000000  0.5959200000000000
  0.3333300000000000  0.6666700000000000  0.4040800000000000
  0.3333300000000000  0.6666700000000000  0.9292400000000000
