Re Te  N 
 1.0000000000000000
     3.2709999999999999    0.0000000000000000    0.0000000000000000
    -1.6354999999999991    2.8327690957788989    0.0000000000000000
     0.0000000000000000    0.0000000000000000   25.4780000000000015
 Re  Te  N  
   6   6   3
Direct
  0.0000000000000000  0.0000000000000000  0.6305900000000000
  0.9999999999999997  0.9999999999999998  0.3694100000000000
  0.6666700000000000  0.3333300000000000  0.9639300000000000
  0.6666700000000000  0.3333300000000000  0.7027300000000000
  0.3333300000000000  0.6666700000000000  0.2972700000000000
  0.3333300000000000  0.6666700000000000  0.0360700000000000
  0.9999999999999997  0.9999999999999998  0.7807100000000000
  0.0000000000000000  0.0000000000000000  0.2192900000000000
  0.6666700000000000  0.3333300000000000  0.1140400000000000
  0.6666700000000000  0.3333300000000000  0.5526200000000000
  0.3333300000000000  0.6666700000000000  0.4473800000000000
  0.3333300000000000  0.6666700000000000  0.8859600000000000
  0.0000000000000000  0.0000000000000000  0.0000000000000000
  0.6666700000000000  0.3333300000000000  0.3333199999999999
  0.3333300000000000  0.6666700000000000  0.6666800000000001
