Zn Se Si 
 1.0000000000000000
     3.2690000000000001    0.0000000000000000    0.0000000000000000
    -1.6344999999999994    2.8310370449713305    0.0000000000000000
     0.0000000000000000    0.0000000000000000    8.5470000000000006
 Zn  Se  Si 
   2   2   1
Direct
  0.7733400000000000  0.3866700000000001  0.7524600000000000
  0.2266600000000000  0.6133300000000000  0.2475400000000000
  0.6161199999999998  0.3080600000000000  0.4450500000000000
  0.3838799999999999  0.6919400000000001  0.5549500000000001
  0.0000000000000000  0.0000000000000000  0.0000000000000000
