Cu Pt  C Te
 1.0000000000000000
     3.3029999999999999    0.0000000000000000    0.0000000000000000
    -1.6514999999999993    2.8604819087000011    0.0000000000000000
     0.0000000000000000    0.0000000000000000   25.8299999999999983
 Cu  Pt  C   Te
   3   6   3   6
Direct
  0.0000000000000000  0.0000000000000000  0.0000000000000000
  0.6666700000000000  0.3333300000000000  0.3333300000000001
  0.3333300000000000  0.6666700000000000  0.6666700000000001
  0.0000000000000000  0.0000000000000000  0.8747700000000002
  0.0000000000000000  0.0000000000000000  0.1252300000000000
  0.6666700000000000  0.3333300000000000  0.2081000000000001
  0.6666700000000000  0.3333300000000000  0.4585700000000000
  0.3333300000000000  0.6666700000000000  0.5414300000000000
  0.3333300000000000  0.6666700000000000  0.7919000000000000
  0.0000000000000000  0.0000000000000000  0.5000000000000000
  0.6666700000000000  0.3333300000000000  0.8333300000000000
  0.3333300000000000  0.6666700000000000  0.1666700000000000
  0.0000000000000000  0.0000000000000000  0.7322800000000000
  0.0000000000000000  0.0000000000000000  0.2677200000000000
  0.6666700000000000  0.3333300000000000  0.0656200000000000
  0.6666700000000000  0.3333300000000000  0.6010500000000000
  0.3333300000000000  0.6666700000000000  0.3989500000000000
  0.3333300000000000  0.6666700000000000  0.9343800000000001
