Hf Te In 
 1.0000000000000000
     3.2709999999999999    0.0000000000000000    0.0000000000000000
    -1.6354999999999993    2.8327690957788989    0.0000000000000000
     0.0000000000000000    0.0000000000000000   25.4780000000000015
 Hf  Te  In 
   6   6   3
Direct
  0.9999999999999997  0.9999999999999998  0.6031700000000000
  0.0000000000000000  0.0000000000000000  0.3968299999999999
  0.6666700000000000  0.3333300000000000  0.9365100000000000
  0.6666700000000000  0.3333300000000000  0.7301599999999999
  0.3333300000000000  0.6666700000000000  0.2698400000000000
  0.3333300000000000  0.6666700000000000  0.0634900000000000
  0.9999999999999997  0.9999999999999998  0.7834600000000000
  0.0000000000000000  0.0000000000000000  0.2165400000000000
  0.6666700000000000  0.3333300000000000  0.1168000000000000
  0.6666700000000000  0.3333300000000000  0.5498700000000000
  0.3333300000000000  0.6666700000000000  0.4501300000000000
  0.3333300000000000  0.6666700000000000  0.8832000000000000
  0.0000000000000000  0.0000000000000000  0.0000000000000000
  0.6666600000000000  0.3333400000000000  0.3333300000000000
  0.3333400000000000  0.6666600000000000  0.6666699999999999
