Zr Te Pb 
 1.0000000000000000
     3.2709999999999999    0.0000000000000000    0.0000000000000000
    -1.6354999999999993    2.8327690957788989    0.0000000000000000
     0.0000000000000000    0.0000000000000000   25.4780000000000015
 Zr  Te  Pb 
   6   6   3
Direct
  0.0000199999999999  0.9999799999999998  0.5844800000000000
  0.9999800000000000  0.0000200000000000  0.4155199999999999
  0.6666800000000001  0.3333199999999999  0.9177599999999998
  0.6667000000000000  0.3333000000000000  0.7488200000000000
  0.3332999999999999  0.6667000000000000  0.2511800000000000
  0.3333199999999999  0.6666800000000001  0.0822400000000000
  0.0000300000000000  0.9999700000000000  0.7887299999999998
  0.9999700000000000  0.0000300000000000  0.2112700000000000
  0.6666500000000000  0.3333500000000000  0.1221800000000000
  0.6666800000000001  0.3333199999999999  0.5445700000000000
  0.3333199999999999  0.6666800000000001  0.4554300000000000
  0.3333499999999999  0.6666499999999999  0.8778200000000000
  0.0000000000000000  0.0000000000000000  0.0000000000000000
  0.6668099999999999  0.3331900000000000  0.3333400000000000
  0.3331900000000000  0.6668099999999999  0.6666599999999999
