Li Ti  N  S 
 1.0000000000000000
     3.3029999999999999    0.0000000000000000    0.0000000000000000
    -1.6514999999999991    2.8604819087000011    0.0000000000000000
     0.0000000000000000    0.0000000000000000   25.8299999999999983
 Li  Ti  N   S  
   3   6   3   6
Direct
  0.0000000000000000  0.0000000000000000  0.0000000000000000
  0.6680199999999998  0.3319800000000000  0.3507900000000000
  0.3319799999999999  0.6680199999999999  0.6492100000000001
  0.9979199999999998  0.0020800000000000  0.8671300000000000
  0.0020800000000000  0.9979200000000000  0.1328700000000000
  0.7261299999999998  0.2738700000000000  0.2418200000000000
  0.6680800000000000  0.3319200000000000  0.4746100000000000
  0.3319200000000000  0.6680800000000000  0.5253900000000000
  0.2738700000000001  0.7261300000000002  0.7581800000000000
  0.0000000000000000  0.0000000000000000  0.5000000000000000
  0.6681700000000000  0.3318300000000000  0.8821400000000001
  0.3318300000000000  0.6681700000000000  0.1178600000000000
  0.9422100000000001  0.0577900000000000  0.7350700000000000
  0.0577900000000000  0.9422100000000000  0.2649300000000000
  0.5551500000000000  0.4448500000000001  0.0816400000000000
  0.7603300000000000  0.2396700000000000  0.5848800000000000
  0.2396700000000000  0.7603300000000000  0.4151200000000000
  0.4448500000000000  0.5551500000000000  0.9183600000000002
