Ti Sc  C  S
 1.0000000000000000
     3.3029999999999999    0.0000000000000000    0.0000000000000000
    -1.6514999999999991    2.8604819087000011    0.0000000000000000
     0.0000000000000000    0.0000000000000000   25.8299999999999983
 Ti  Sc  C   S
   3   6   3   6
Direct
  0.0000000000000000  0.0000000000000000  0.0000000000000000
  0.6666700000000000  0.3333300000000000  0.3333300000000001
  0.3333300000000000  0.6666700000000000  0.6666700000000001
  0.0000000000000000  0.0000000000000000  0.8784900000000000
  0.0000000000000000  0.0000000000000000  0.1215100000000000
  0.6666700000000000  0.3333300000000000  0.2118200000000000
  0.6666700000000000  0.3333300000000000  0.4548500000000000
  0.3333300000000000  0.6666700000000000  0.5451500000000000
  0.3333300000000000  0.6666700000000000  0.7881800000000000
  0.0000000000000000  0.0000000000000000  0.5000000000000000
  0.6666700000000000  0.3333300000000000  0.8333300000000000
  0.3333300000000000  0.6666700000000000  0.1666700000000000
  0.0000000000000000  0.0000000000000000  0.7228400000000000
  0.0000000000000000  0.0000000000000000  0.2771600000000000
  0.6666700000000000  0.3333300000000000  0.0561700000000000
  0.6666700000000000  0.3333300000000000  0.6104900000000000
  0.3333300000000000  0.6666700000000000  0.3895100000000000
  0.3333300000000000  0.6666700000000000  0.9438299999999999
