 V Se  N 
 1.0000000000000000
     3.2709999999999999    0.0000000000000000    0.0000000000000000
    -1.6354999999999991    2.8327690957788989    0.0000000000000000
     0.0000000000000000    0.0000000000000000   25.4780000000000015
 V   Se  N  
   6   6   3
Direct
  0.9999999999999997  0.9999999999999998  0.6292100000000000
  0.0000000000000000  0.0000000000000000  0.3707900000000000
  0.6666700000000000  0.3333300000000000  0.9625399999999998
  0.6666700000000000  0.3333300000000000  0.7041200000000000
  0.3333300000000000  0.6666700000000000  0.2958800000000000
  0.3333300000000000  0.6666700000000000  0.0374600000000000
  0.9999999999999997  0.9999999999999998  0.7705899999999999
  0.0000000000000000  0.0000000000000000  0.2294100000000000
  0.6666700000000000  0.3333300000000000  0.1039300000000000
  0.6666700000000000  0.3333300000000000  0.5627400000000000
  0.3333300000000000  0.6666700000000000  0.4372600000000000
  0.3333300000000000  0.6666700000000000  0.8960700000000000
  0.0000000000000000  0.0000000000000000  0.0000000000000000
  0.6666700000000000  0.3333300000000000  0.3333300000000000
  0.3333300000000000  0.6666700000000000  0.6666699999999999
