Ca Zr  N Se 
 1.0000000000000000
     3.3029999999999999    0.0000000000000000    0.0000000000000000
    -1.6514999999999993    2.8604819087000011    0.0000000000000000
     0.0000000000000000    0.0000000000000000   25.8299999999999983
 Ca  Zr  N   Se 
   3   6   3   6
Direct
  0.0000000000000000  0.0000000000000000  0.0000000000000000
  0.6340100000000000  0.3659900000000000  0.3177400000000001
  0.3659899999999999  0.6340100000000000  0.6822600000000001
  0.9950900000000000  0.0049100000000000  0.8686900000000001
  0.0049100000000000  0.9950900000000000  0.1313100000000000
  0.6526099999999999  0.3473900000000000  0.1937500000000000
  0.6665300000000000  0.3334700000000000  0.4702500000000001
  0.3334700000000000  0.6665300000000000  0.5297500000000001
  0.3473900000000000  0.6526100000000000  0.8062500000000000
  0.0000000000000000  0.0000000000000000  0.5000000000000000
  0.6854999999999999  0.3145000000000000  0.8206600000000001
  0.3144999999999999  0.6855000000000000  0.1793400000000000
  0.0328900000000000  0.9671100000000000  0.7129799999999999
  0.9671099999999998  0.0328900000000000  0.2870200000000000
  0.6547300000000000  0.3452700000000000  0.0910800000000000
  0.6699500000000000  0.3300500000000000  0.5901200000000000
  0.3300499999999999  0.6699500000000000  0.4098800000000001
  0.3452700000000000  0.6547300000000000  0.9089200000000001
