Ta Se  P 
 1.0000000000000000
     3.2709999999999999    0.0000000000000000    0.0000000000000000
    -1.6354999999999993    2.8327690957788989    0.0000000000000000
     0.0000000000000000    0.0000000000000000   25.4780000000000015
 Ta  Se  P  
   6   6   3
Direct
  0.0000000000000000  0.0000000000000000  0.6324100000000000
  0.9999999999999997  0.9999999999999998  0.3675900000000000
  0.6666700000000000  0.3333300000000000  0.9657399999999998
  0.6666600000000000  0.3333400000000000  0.7009200000000000
  0.3333400000000000  0.6666600000000000  0.2990800000000000
  0.3333300000000000  0.6666700000000000  0.0342600000000000
  0.0000000000000000  0.0000000000000000  0.7736299999999999
  0.9999999999999997  0.9999999999999998  0.2263700000000000
  0.6666700000000000  0.3333300000000000  0.1069600000000000
  0.6666700000000000  0.3333300000000000  0.5597000000000000
  0.3333300000000000  0.6666700000000000  0.4403000000000000
  0.3333300000000000  0.6666700000000000  0.8930399999999999
  0.0000000000000000  0.0000000000000000  0.0000000000000000
  0.6666600000000000  0.3333400000000000  0.3333300000000000
  0.3333400000000000  0.6666600000000000  0.6666699999999999
