Ti Cr  S  N 
 1.0000000000000000
     3.3121000000000000    0.0000000000000000    0.0000000000000000
    -1.6560499999999994    2.8683627398744393    0.0000000000000000
     0.0000000000000000    0.0000000000000000    9.0113000000000003
 Ti  Cr  S   N  
   2   2   2   1
Direct
  0.6667000000000001  0.3333500000000000  0.6054000000000000
  0.3333000000000001  0.6666500000000000  0.3946000000000000
  0.6669700000000000  0.3334900000000000  0.9135900000000000
  0.3330300000000000  0.6665100000000000  0.0864100000000000
  0.6666400000000001  0.3333200000000000  0.2464600000000000
  0.3333600000000001  0.6666800000000001  0.7535400000000000
  0.0000000000000000  0.0000000000000000  0.0000000000000000
