Zr Se Pb 
 1.0000000000000000
     3.2709999999999999    0.0000000000000000    0.0000000000000000
    -1.6354999999999993    2.8327690957788989    0.0000000000000000
     0.0000000000000000    0.0000000000000000   25.4780000000000015
 Zr  Se  Pb 
   6   6   3
Direct
  0.9999700000000000  0.0000300000000000  0.5747900000000000
  0.0000300000000000  0.9999700000000000  0.4252100000000000
  0.6666900000000000  0.3333099999999999  0.9081200000000000
  0.6666600000000000  0.3333400000000000  0.7585499999999999
  0.3333400000000000  0.6666600000000000  0.2414500000000000
  0.3333100000000000  0.6666900000000000  0.0918800000000000
  0.0000199999999999  0.9999799999999998  0.7896099999999998
  0.9999800000000000  0.0000200000000000  0.2103900000000000
  0.6666600000000000  0.3333400000000000  0.1229400000000000
  0.6666800000000001  0.3333199999999999  0.5437300000000000
  0.3333199999999999  0.6666800000000001  0.4562699999999999
  0.3333400000000000  0.6666600000000000  0.8770600000000000
  0.0000000000000000  0.0000000000000000  0.0000000000000000
  0.6666399999999999  0.3333600000000000  0.3333300000000000
  0.3333600000000000  0.6666399999999999  0.6666699999999999
