Sc Te Si 
 1.0000000000000000
     3.2709999999999999    0.0000000000000000    0.0000000000000000
    -1.6354999999999993    2.8327690957788989    0.0000000000000000
     0.0000000000000000    0.0000000000000000   25.4780000000000015
 Sc  Te  Si 
   6   6   3
Direct
  0.0000100000000000  0.9999899999999999  0.6169900000000000
  0.9999900000000000  0.0000100000000000  0.3830100000000000
  0.6666700000000000  0.3333300000000000  0.9503200000000001
  0.6666700000000000  0.3333300000000000  0.7163400000000000
  0.3333300000000000  0.6666700000000000  0.2836600000000000
  0.3333300000000000  0.6666700000000000  0.0496800000000000
  0.0000000000000000  0.0000000000000000  0.7693099999999998
  0.9999999999999997  0.9999999999999998  0.2306900000000000
  0.6666700000000000  0.3333300000000000  0.1026400000000000
  0.6666600000000000  0.3333400000000000  0.5640200000000000
  0.3333400000000000  0.6666600000000000  0.4359799999999999
  0.3333300000000000  0.6666700000000000  0.8973600000000000
  0.0000000000000000  0.0000000000000000  0.0000000000000000
  0.6666700000000000  0.3333300000000000  0.3333300000000000
  0.3333300000000000  0.6666700000000000  0.6666699999999999
