Au Te  B 
 1.0000000000000000
     3.2709999999999999    0.0000000000000000    0.0000000000000000
    -1.6354999999999993    2.8327690957788989    0.0000000000000000
     0.0000000000000000    0.0000000000000000   25.4780000000000015
 Au  Te  B  
   6   6   3
Direct
  0.9999999999999997  0.9999999999999998  0.6194300000000000
  0.0000000000000000  0.0000000000000000  0.3805700000000000
  0.6666700000000000  0.3333300000000000  0.9527700000000000
  0.6666700000000000  0.3333300000000000  0.7139000000000000
  0.3333300000000000  0.6666700000000000  0.2861000000000000
  0.3333300000000000  0.6666700000000000  0.0472300000000000
  0.9999999999999997  0.9999999999999998  0.7868599999999998
  0.0000000000000000  0.0000000000000000  0.2131400000000000
  0.6666700000000000  0.3333300000000000  0.1202000000000000
  0.6666700000000000  0.3333300000000000  0.5464700000000000
  0.3333300000000000  0.6666700000000000  0.4535300000000000
  0.3333300000000000  0.6666700000000000  0.8798000000000000
  0.0000000000000000  0.0000000000000000  0.0000000000000000
  0.6666700000000000  0.3333300000000000  0.3333300000000000
  0.3333300000000000  0.6666700000000000  0.6666699999999999
