Sc Hf Te  C 
 1.0000000000000000
     3.3121000000000000    0.0000000000000000    0.0000000000000000
    -1.6560499999999991    2.8683627398744393    0.0000000000000000
     0.0000000000000000    0.0000000000000000    9.0113000000000003
 Sc  Hf  Te  C  
   2   2   2   1
Direct
  0.6665900000000000  0.3332900000000000  0.5602300000000000
  0.3334100000000000  0.6667100000000000  0.4397700000000000
  0.6666500000000000  0.3333300000000000  0.8995300000000002
  0.3333500000000000  0.6666700000000000  0.1004700000000000
  0.6667000000000001  0.3333500000000000  0.2763800000000000
  0.3333000000000001  0.6666500000000000  0.7236200000000000
  0.0000000000000000  0.0000000000000000  0.0000000000000000
