Zn Se Al 
 1.0000000000000000
     3.2690000000000001    0.0000000000000000    0.0000000000000000
    -1.6344999999999994    2.8310370449713305    0.0000000000000000
     0.0000000000000000    0.0000000000000000    8.5470000000000006
 Zn  Se  Al 
   2   2   1
Direct
  0.7351800000000001  0.3675900000000000  0.7494600000000000
  0.2648200000000000  0.6324100000000000  0.2505400000000000
  0.6188899999999999  0.3094500000000000  0.4472400000000000
  0.3811099999999999  0.6905500000000000  0.5527600000000000
  0.0000000000000000  0.0000000000000000  0.0000000000000000
