Re Te Sn 
 1.0000000000000000
     3.2690000000000001    0.0000000000000000    0.0000000000000000
    -1.6344999999999994    2.8310370449713305    0.0000000000000000
     0.0000000000000000    0.0000000000000000    8.5470000000000006
 Re  Te  Sn 
   2   2   1
Direct
  0.6666000000000000  0.3333000000000000  0.7884000000000000
  0.3334000000000000  0.6667000000000000  0.2116000000000000
  0.6667299999999998  0.3333600000000000  0.3508100000000000
  0.3332700000000001  0.6666400000000001  0.6491900000000000
  0.0000000000000000  0.0000000000000000  0.0000000000000000
