Ag  S  C 
 1.0000000000000000
     3.2690000000000001    0.0000000000000000    0.0000000000000000
    -1.6344999999999992    2.8310370449713305    0.0000000000000000
     0.0000000000000000    0.0000000000000000    8.5470000000000006
 Ag  S   C  
   2   2   1
Direct
  0.6666299999999999  0.3333100000000000  0.8342600000000000
  0.3333699999999999  0.6666900000000001  0.1657400000000000
  0.6666099999999999  0.3333100000000000  0.3907500000000000
  0.3333900000000000  0.6666900000000001  0.6092500000000000
  0.0000000000000000  0.0000000000000000  0.0000000000000000
