Fe Cr  S  C 
 1.0000000000000000
     3.3121000000000000    0.0000000000000000    0.0000000000000000
    -1.6560499999999991    2.8683627398744393    0.0000000000000000
     0.0000000000000000    0.0000000000000000    9.0113000000000003
 Fe  Cr  S   C  
   2   2   2   1
Direct
  0.6667000000000001  0.3333500000000000  0.6034100000000000
  0.3333000000000001  0.6666500000000000  0.3965900000000000
  0.6666700000000001  0.3333300000000000  0.9010600000000000
  0.3333300000000001  0.6666700000000000  0.0989400000000000
  0.6666700000000001  0.3333400000000000  0.2942600000000000
  0.3333300000000001  0.6666600000000000  0.7057400000000001
  0.0000000000000000  0.0000000000000000  0.0000000000000000
