Cr Hf  C  S
 1.0000000000000000
     3.3029999999999999    0.0000000000000000    0.0000000000000000
    -1.6514999999999991    2.8604819087000011    0.0000000000000000
     0.0000000000000000    0.0000000000000000   25.8299999999999983
 Cr  Hf  C   S
   3   6   3   6
Direct
  0.0000000000000000  0.0000000000000000  0.0000000000000000
  0.6666700000000000  0.3333300000000000  0.3333300000000001
  0.3333300000000000  0.6666700000000000  0.6666700000000001
  0.0000000000000000  0.0000000000000000  0.8804999999999999
  0.0000000000000000  0.0000000000000000  0.1195000000000000
  0.6666700000000000  0.3333300000000000  0.2138400000000001
  0.6666700000000000  0.3333300000000000  0.4528300000000000
  0.3333300000000000  0.6666700000000000  0.5471700000000000
  0.3333300000000000  0.6666700000000000  0.7861600000000000
  0.0000000000000000  0.0000000000000000  0.5000000000000000
  0.6666700000000000  0.3333300000000000  0.8333300000000000
  0.3333300000000000  0.6666700000000000  0.1666700000000000
  0.0000000000000000  0.0000000000000000  0.7183600000000000
  0.0000000000000000  0.0000000000000000  0.2816400000000000
  0.6666700000000000  0.3333300000000000  0.0516900000000000
  0.6666600000000000  0.3333400000000000  0.6149700000000000
  0.3333400000000000  0.6666600000000000  0.3850300000000000
  0.3333300000000000  0.6666700000000000  0.9483100000000000
