Na Zn  N  S 
 1.0000000000000000
     3.3029999999999999    0.0000000000000000    0.0000000000000000
    -1.6514999999999991    2.8604819087000011    0.0000000000000000
     0.0000000000000000    0.0000000000000000   25.8299999999999983
 Na  Zn  N   S  
   3   6   3   6
Direct
  0.0000000000000000  0.0000000000000000  0.0000000000000000
  0.6666700000000000  0.3333300000000000  0.3333300000000001
  0.3333300000000000  0.6666700000000000  0.6666700000000001
  0.0000000000000000  0.0000000000000000  0.8804700000000001
  0.0000000000000000  0.0000000000000000  0.1195300000000000
  0.6666800000000001  0.3333200000000000  0.2137400000000000
  0.6666600000000000  0.3333400000000000  0.4529000000000000
  0.3333400000000000  0.6666600000000000  0.5471000000000000
  0.3333200000000000  0.6666800000000001  0.7862600000000000
  0.0000000000000000  0.0000000000000000  0.5000000000000000
  0.6666800000000001  0.3333200000000000  0.8335100000000001
  0.3333200000000000  0.6666800000000001  0.1664900000000000
  0.9999899999999998  0.0000100000000000  0.7232000000000000
  0.0000100000000001  0.9999900000000002  0.2768000000000000
  0.6666600000000000  0.3333400000000000  0.0565600000000000
  0.6666700000000000  0.3333300000000000  0.6101200000000000
  0.3333300000000000  0.6666700000000000  0.3898800000000001
  0.3333400000000000  0.6666600000000000  0.9434400000000001
