Cu  S Si 
 1.0000000000000000
     3.2709999999999999    0.0000000000000000    0.0000000000000000
    -1.6354999999999993    2.8327690957788989    0.0000000000000000
     0.0000000000000000    0.0000000000000000   25.4780000000000015
 Cu  S   Si 
   6   6   3
Direct
  0.2217100000000000  0.7782900000000000  0.5896199999999999
  0.7782900000000000  0.2217099999999999  0.4103800000000000
  0.5221600000000000  0.4778399999999999  0.9244400000000000
  0.6647000000000000  0.3353000000000000  0.7502600000000000
  0.3353000000000000  0.6647000000000000  0.2497399999999999
  0.4778400000000000  0.5221600000000000  0.0755600000000000
  0.9481400000000000  0.0518600000000000  0.8441900000000000
  0.0518599999999999  0.9481399999999998  0.1558100000000000
  0.7566000000000001  0.2434000000000000  0.1682800000000000
  0.6865000000000000  0.3134999999999999  0.4973600000000000
  0.3134999999999999  0.6864999999999999  0.5026400000000000
  0.2434000000000000  0.7566000000000001  0.8317200000000000
  0.0000000000000000  0.0000000000000000  0.0000000000000000
  0.8342100000000000  0.1657900000000000  0.3244300000000000
  0.1657900000000000  0.8342100000000000  0.6755700000000000
