Li Ag  N  S 
 1.0000000000000000
     3.3029999999999999    0.0000000000000000    0.0000000000000000
    -1.6514999999999991    2.8604819087000011    0.0000000000000000
     0.0000000000000000    0.0000000000000000   25.8299999999999983
 Li  Ag  N   S  
   3   6   3   6
Direct
  0.0000000000000000  0.0000000000000000  0.0000000000000000
  0.6666700000000000  0.3333300000000000  0.3333300000000001
  0.3333300000000000  0.6666700000000000  0.6666700000000001
  0.0000000000000000  0.0000000000000000  0.8811800000000000
  0.0000000000000000  0.0000000000000000  0.1188200000000000
  0.6666700000000000  0.3333300000000000  0.2144000000000000
  0.6666600000000000  0.3333400000000000  0.4522100000000000
  0.3333400000000000  0.6666600000000000  0.5477900000000000
  0.3333300000000000  0.6666700000000000  0.7856000000000000
  0.0000000000000000  0.0000000000000000  0.5000000000000000
  0.6666700000000000  0.3333300000000000  0.8334900000000001
  0.3333300000000000  0.6666700000000000  0.1665100000000000
  0.0000000000000000  0.0000000000000000  0.7273500000000001
  0.0000000000000000  0.0000000000000000  0.2726500000000000
  0.6666700000000000  0.3333300000000000  0.0606700000000000
  0.6666700000000000  0.3333300000000000  0.6059900000000000
  0.3333300000000000  0.6666700000000000  0.3940100000000000
  0.3333300000000000  0.6666700000000000  0.9393300000000000
