Sc Cu  C Te
 1.0000000000000000
     3.3029999999999999    0.0000000000000000    0.0000000000000000
    -1.6514999999999993    2.8604819087000011    0.0000000000000000
     0.0000000000000000    0.0000000000000000   25.8299999999999983
 Sc  Cu  C   Te
   3   6   3   6
Direct
  0.0000000000000000  0.0000000000000000  0.0000000000000000
  0.5023000000000000  0.4977000000000000  0.3030700000000000
  0.4977000000000000  0.5023000000000000  0.6969300000000000
  0.0177400000000001  0.9822600000000001  0.8645200000000000
  0.9822600000000000  0.0177400000000000  0.1354800000000000
  0.5119700000000000  0.4880300000000000  0.1976200000000000
  0.5055500000000001  0.4944500000000000  0.4519800000000000
  0.4944500000000000  0.5055500000000001  0.5480200000000000
  0.4880300000000000  0.5119700000000000  0.8023800000000000
  0.0000000000000000  0.0000000000000000  0.5000000000000000
  0.5395200000000000  0.4604800000000000  0.8791600000000002
  0.4604799999999999  0.5395200000000000  0.1208400000000000
  0.1651100000000001  0.8348900000000000  0.7343000000000001
  0.8348899999999998  0.1651100000000000  0.2657000000000000
  0.6636600000000000  0.3363400000000000  0.0653200000000000
  0.9873400000000000  0.0126600000000000  0.6182200000000000
  0.0126600000000001  0.9873400000000001  0.3817800000000001
  0.3363400000000000  0.6636600000000000  0.9346800000000000
