Pt  S Al 
 1.0000000000000000
     3.2690000000000001    0.0000000000000000    0.0000000000000000
    -1.6344999999999994    2.8310370449713305    0.0000000000000000
     0.0000000000000000    0.0000000000000000    8.5470000000000006
 Pt  S   Al 
   2   2   1
Direct
  0.6477899999999998  0.3239000000000001  0.8351600000000000
  0.3522100000000000  0.6761000000000001  0.1648400000000000
  0.6285899999999999  0.3143000000000001  0.4486000000000000
  0.3714100000000001  0.6857000000000001  0.5514000000000000
  0.0000000000000000  0.0000000000000000  0.0000000000000000
