Ta  S Ga 
 1.0000000000000000
     3.2709999999999999    0.0000000000000000    0.0000000000000000
    -1.6354999999999993    2.8327690957788989    0.0000000000000000
     0.0000000000000000    0.0000000000000000   25.4780000000000015
 Ta  S   Ga 
   6   6   3
Direct
  0.0000100000000000  0.9999899999999999  0.5724000000000000
  0.9999900000000000  0.0000100000000000  0.4276000000000000
  0.6666700000000000  0.3333300000000000  0.9057399999999998
  0.6666800000000001  0.3333199999999999  0.7609300000000000
  0.3333199999999999  0.6666800000000001  0.2390700000000000
  0.3333300000000000  0.6666700000000000  0.0942600000000000
  0.0000100000000000  0.9999899999999999  0.7895600000000000
  0.9999900000000000  0.0000100000000000  0.2104400000000000
  0.6666700000000000  0.3333300000000000  0.1228900000000000
  0.6666800000000001  0.3333199999999999  0.5437700000000000
  0.3333199999999999  0.6666800000000001  0.4562300000000000
  0.3333300000000000  0.6666700000000000  0.8771099999999999
  0.0000000000000000  0.0000000000000000  0.0000000000000000
  0.6667299999999999  0.3332700000000000  0.3333300000000000
  0.3332700000000000  0.6667299999999999  0.6666699999999999
