 V Pt Se  C 
 1.0000000000000000
     3.3121000000000000    0.0000000000000000    0.0000000000000000
    -1.6560499999999991    2.8683627398744393    0.0000000000000000
     0.0000000000000000    0.0000000000000000    9.0113000000000003
 V   Pt  Se  C  
   2   2   2   1
Direct
  0.6666600000000003  0.3333300000000000  0.5771800000000000
  0.3333400000000000  0.6666700000000000  0.4228200000000000
  0.6666600000000003  0.3333300000000000  0.8868500000000000
  0.3333400000000000  0.6666700000000000  0.1131500000000000
  0.6666700000000001  0.3333400000000000  0.2884000000000000
  0.3333300000000001  0.6666600000000000  0.7116000000000000
  0.0000000000000000  0.0000000000000000  0.0000000000000000
