Rh Se Ge 
 1.0000000000000000
     3.2709999999999999    0.0000000000000000    0.0000000000000000
    -1.6354999999999993    2.8327690957788989    0.0000000000000000
     0.0000000000000000    0.0000000000000000   25.4780000000000015
 Rh  Se  Ge 
   6   6   3
Direct
  0.9999999999999997  0.9999999999999998  0.6190099999999999
  0.0000000000000000  0.0000000000000000  0.3809900000000000
  0.6666700000000000  0.3333300000000000  0.9523400000000000
  0.6666700000000000  0.3333300000000000  0.7143200000000000
  0.3333300000000000  0.6666700000000000  0.2856800000000000
  0.3333300000000000  0.6666700000000000  0.0476600000000000
  0.9999999999999997  0.9999999999999998  0.7775200000000000
  0.0000000000000000  0.0000000000000000  0.2224800000000000
  0.6666700000000000  0.3333300000000000  0.1108600000000000
  0.6666700000000000  0.3333300000000000  0.5558100000000000
  0.3333300000000000  0.6666700000000000  0.4441900000000000
  0.3333300000000000  0.6666700000000000  0.8891400000000000
  0.0000000000000000  0.0000000000000000  0.0000000000000000
  0.6666700000000000  0.3333300000000000  0.3333300000000000
  0.3333300000000000  0.6666700000000000  0.6666699999999999
