Ag Pt Se  C 
 1.0000000000000000
     3.3121000000000000    0.0000000000000000    0.0000000000000000
    -1.6560499999999991    2.8683627398744393    0.0000000000000000
     0.0000000000000000    0.0000000000000000    9.0113000000000003
 Ag  Pt  Se  C  
   2   2   2   1
Direct
  0.6666700000000001  0.3333300000000000  0.5831400000000000
  0.3333300000000001  0.6666700000000000  0.4168600000000000
  0.6666700000000001  0.3333300000000000  0.8933100000000000
  0.3333300000000001  0.6666700000000000  0.1066900000000000
  0.6666700000000001  0.3333300000000000  0.2555500000000000
  0.3333300000000001  0.6666700000000000  0.7444499999999999
  0.0000000000000000  0.0000000000000000  0.0000000000000000
