Ag Cd  N  S 
 1.0000000000000000
     3.3029999999999999    0.0000000000000000    0.0000000000000000
    -1.6514999999999991    2.8604819087000011    0.0000000000000000
     0.0000000000000000    0.0000000000000000   25.8299999999999983
 Ag  Cd  N   S  
   3   6   3   6
Direct
  0.0000000000000000  0.0000000000000000  0.0000000000000000
  0.6666700000000000  0.3333300000000000  0.3333300000000001
  0.3333300000000000  0.6666700000000000  0.6666700000000001
  0.0000000000000000  0.0000000000000000  0.8814600000000000
  0.0000000000000000  0.0000000000000000  0.1185400000000000
  0.6666700000000000  0.3333300000000000  0.2147500000000000
  0.6666600000000000  0.3333400000000000  0.4518900000000000
  0.3333400000000000  0.6666600000000000  0.5481100000000000
  0.3333300000000000  0.6666700000000000  0.7852500000000001
  0.0000000000000000  0.0000000000000000  0.5000000000000000
  0.6666700000000000  0.3333300000000000  0.8334000000000000
  0.3333300000000000  0.6666700000000000  0.1666000000000000
  0.0000000000000000  0.0000000000000000  0.7241900000000001
  0.0000000000000000  0.0000000000000000  0.2758100000000000
  0.6666700000000000  0.3333300000000000  0.0575300000000000
  0.6666700000000000  0.3333300000000000  0.6091400000000000
  0.3333300000000000  0.6666700000000000  0.3908600000000000
  0.3333300000000000  0.6666700000000000  0.9424700000000000
