Mg Au  N  S 
 1.0000000000000000
     3.3029999999999999    0.0000000000000000    0.0000000000000000
    -1.6514999999999991    2.8604819087000011    0.0000000000000000
     0.0000000000000000    0.0000000000000000   25.8299999999999983
 Mg  Au  N   S  
   3   6   3   6
Direct
  0.0000000000000000  0.0000000000000000  0.0000000000000000
  0.6666700000000000  0.3333300000000000  0.3333000000000000
  0.3333300000000000  0.6666700000000000  0.6667000000000001
  0.0000000000000000  0.0000000000000000  0.8833100000000000
  0.0000000000000000  0.0000000000000000  0.1166900000000000
  0.6666700000000000  0.3333300000000000  0.2165000000000000
  0.6666600000000000  0.3333400000000000  0.4501000000000000
  0.3333400000000000  0.6666600000000000  0.5499000000000001
  0.3333300000000000  0.6666700000000000  0.7835000000000000
  0.0000000000000000  0.0000000000000000  0.5000000000000000
  0.6666999999999998  0.3333000000000000  0.8335100000000001
  0.3332999999999999  0.6667000000000000  0.1664900000000000
  0.9999800000000000  0.0000200000000000  0.7229700000000000
  0.0000200000000001  0.9999800000000001  0.2770300000000000
  0.6666700000000000  0.3333300000000000  0.0562800000000000
  0.6666700000000000  0.3333300000000000  0.6103600000000000
  0.3333300000000000  0.6666700000000000  0.3896400000000000
  0.3333300000000000  0.6666700000000000  0.9437200000000000
