Mn Au  N  S 
 1.0000000000000000
     3.3029999999999999    0.0000000000000000    0.0000000000000000
    -1.6514999999999991    2.8604819087000011    0.0000000000000000
     0.0000000000000000    0.0000000000000000   25.8299999999999983
 Mn  Au  N   S  
   3   6   3   6
Direct
  0.0000000000000000  0.0000000000000000  0.0000000000000000
  0.6666700000000000  0.3333300000000000  0.3332700000000000
  0.3333300000000000  0.6666700000000000  0.6667300000000000
  0.0000000000000000  0.0000000000000000  0.8892600000000003
  0.0000000000000000  0.0000000000000000  0.1107400000000000
  0.6666700000000000  0.3333300000000000  0.2224800000000000
  0.6666700000000000  0.3333300000000000  0.4441400000000000
  0.3333300000000000  0.6666700000000000  0.5558600000000000
  0.3333300000000000  0.6666700000000000  0.7775200000000000
  0.0000000000000000  0.0000000000000000  0.5000000000000000
  0.6666999999999998  0.3333000000000000  0.8334900000000001
  0.3332999999999999  0.6667000000000000  0.1665100000000000
  0.0000100000000001  0.9999900000000002  0.7091300000000000
  0.9999899999999998  0.0000100000000000  0.2908700000000000
  0.6666900000000000  0.3333100000000000  0.0425000000000000
  0.6666400000000000  0.3333600000000000  0.6241400000000001
  0.3333600000000000  0.6666400000000000  0.3758600000000000
  0.3333099999999999  0.6666900000000000  0.9575000000000000
