Zn Rh  N  S 
 1.0000000000000000
     3.3029999999999999    0.0000000000000000    0.0000000000000000
    -1.6514999999999991    2.8604819087000011    0.0000000000000000
     0.0000000000000000    0.0000000000000000   25.8299999999999983
 Zn  Rh  N   S  
   3   6   3   6
Direct
  0.0000000000000000  0.0000000000000000  0.0000000000000000
  0.6666700000000000  0.3333300000000000  0.3333400000000001
  0.3333300000000000  0.6666700000000000  0.6666600000000001
  0.0000000000000000  0.0000000000000000  0.8726200000000000
  0.0000000000000000  0.0000000000000000  0.1273800000000000
  0.6666700000000000  0.3333300000000000  0.2058500000000000
  0.6666700000000000  0.3333300000000000  0.4607700000000000
  0.3333300000000000  0.6666700000000000  0.5392300000000000
  0.3333300000000000  0.6666700000000000  0.7941500000000000
  0.0000000000000000  0.0000000000000000  0.5000000000000000
  0.6666700000000000  0.3333300000000000  0.8334600000000000
  0.3333300000000000  0.6666700000000000  0.1665400000000000
  0.9999899999999998  0.0000100000000000  0.7574000000000000
  0.0000100000000001  0.9999900000000002  0.2426000000000000
  0.6666700000000000  0.3333300000000000  0.0906600000000000
  0.6666700000000000  0.3333300000000000  0.5759700000000000
  0.3333300000000000  0.6666700000000000  0.4240300000000000
  0.3333300000000000  0.6666700000000000  0.9093400000000000
