Cr Hg  C Se
 1.0000000000000000
     3.3029999999999999    0.0000000000000000    0.0000000000000000
    -1.6514999999999993    2.8604819087000011    0.0000000000000000
     0.0000000000000000    0.0000000000000000   25.8299999999999983
 Cr  Hg  C   Se
   3   6   3   6
Direct
  0.0000000000000000  0.0000000000000000  0.0000000000000000
  0.6666999999999998  0.3333000000000000  0.3333200000000000
  0.3332999999999999  0.6667000000000000  0.6666800000000002
  0.0000000000000000  0.0000000000000000  0.8862600000000000
  0.0000000000000000  0.0000000000000000  0.1137400000000000
  0.6666700000000000  0.3333300000000000  0.2195800000000000
  0.6666700000000000  0.3333300000000000  0.4470800000000000
  0.3333300000000000  0.6666700000000000  0.5529200000000000
  0.3333300000000000  0.6666700000000000  0.7804200000000001
  0.0000000000000000  0.0000000000000000  0.5000000000000000
  0.6666900000000000  0.3333100000000000  0.8333400000000000
  0.3333099999999999  0.6666900000000000  0.1666600000000000
  0.0000100000000001  0.9999900000000002  0.7079800000000001
  0.9999899999999998  0.0000100000000000  0.2920200000000000
  0.6666700000000000  0.3333300000000000  0.0413100000000000
  0.6666600000000000  0.3333400000000000  0.6253500000000000
  0.3333400000000000  0.6666600000000000  0.3746500000000000
  0.3333300000000000  0.6666700000000000  0.9586900000000000
