Na Zr  N Se 
 1.0000000000000000
     3.3029999999999999    0.0000000000000000    0.0000000000000000
    -1.6514999999999993    2.8604819087000011    0.0000000000000000
     0.0000000000000000    0.0000000000000000   25.8299999999999983
 Na  Zr  N   Se 
   3   6   3   6
Direct
  0.0000000000000000  0.0000000000000000  0.0000000000000000
  0.5940099999999998  0.4059900000000000  0.3322900000000000
  0.4059900000000000  0.5940100000000000  0.6677100000000001
  0.9883899999999999  0.0116100000000000  0.8754000000000001
  0.0116100000000000  0.9883900000000000  0.1246000000000000
  0.6589000000000000  0.3411000000000000  0.1873600000000000
  0.6696400000000000  0.3303600000000000  0.4711500000000000
  0.3303599999999999  0.6696400000000000  0.5288500000000000
  0.3411000000000000  0.6589000000000000  0.8126400000000001
  0.0000000000000000  0.0000000000000000  0.5000000000000000
  0.6841100000000000  0.3158900000000000  0.8305200000000001
  0.3158900000000000  0.6841100000000000  0.1694800000000000
  0.0659300000000001  0.9340700000000001  0.7396200000000001
  0.9340699999999997  0.0659300000000000  0.2603800000000000
  0.6564100000000000  0.3435900000000000  0.0824500000000000
  0.7485499999999999  0.2514500000000000  0.5935900000000000
  0.2514500000000000  0.7485500000000000  0.4064100000000000
  0.3435900000000000  0.6564100000000000  0.9175500000000001
