Mg  V  C  S
 1.0000000000000000
     3.3029999999999999    0.0000000000000000    0.0000000000000000
    -1.6514999999999991    2.8604819087000011    0.0000000000000000
     0.0000000000000000    0.0000000000000000   25.8299999999999983
 Mg  V   C   S
   3   6   3   6
Direct
  0.0000000000000000  0.0000000000000000  0.0000000000000000
  0.6666700000000000  0.3333300000000000  0.3333300000000001
  0.3333300000000000  0.6666700000000000  0.6666700000000001
  0.0000000000000000  0.0000000000000000  0.8691300000000000
  0.0000000000000000  0.0000000000000000  0.1308700000000000
  0.6666600000000000  0.3333400000000000  0.2024700000000000
  0.6666700000000000  0.3333300000000000  0.4642000000000000
  0.3333300000000000  0.6666700000000000  0.5358000000000001
  0.3333400000000000  0.6666600000000000  0.7975300000000000
  0.0000000000000000  0.0000000000000000  0.5000000000000000
  0.6666700000000000  0.3333300000000000  0.8333300000000000
  0.3333300000000000  0.6666700000000000  0.1666700000000000
  0.0000000000000000  0.0000000000000000  0.7318300000000000
  0.0000000000000000  0.0000000000000000  0.2681700000000000
  0.6666700000000000  0.3333300000000000  0.0651700000000000
  0.6666700000000000  0.3333300000000000  0.6015000000000000
  0.3333300000000000  0.6666700000000000  0.3985000000000000
  0.3333300000000000  0.6666700000000000  0.9348300000000000
