Fe Ru  S  N 
 1.0000000000000000
     3.3121000000000000    0.0000000000000000    0.0000000000000000
    -1.6560499999999994    2.8683627398744393    0.0000000000000000
     0.0000000000000000    0.0000000000000000    9.0113000000000003
 Fe  Ru  S   N  
   2   2   2   1
Direct
  0.6667700000000000  0.3333900000000000  0.5946100000000000
  0.3332300000000001  0.6666100000000000  0.4053900000000000
  0.6662800000000002  0.3331400000000000  0.8902500000000001
  0.3337200000000000  0.6668600000000000  0.1097500000000000
  0.6666100000000001  0.3333000000000000  0.3059400000000000
  0.3333900000000001  0.6667000000000000  0.6940600000000000
  0.0000000000000000  0.0000000000000000  0.0000000000000000
