Mn Re  N  S 
 1.0000000000000000
     3.3029999999999999    0.0000000000000000    0.0000000000000000
    -1.6514999999999991    2.8604819087000011    0.0000000000000000
     0.0000000000000000    0.0000000000000000   25.8299999999999983
 Mn  Re  N   S  
   3   6   3   6
Direct
  0.0000000000000000  0.0000000000000000  0.0000000000000000
  0.7199500000000000  0.2800500000000000  0.3750000000000000
  0.2800500000000000  0.7199500000000000  0.6250000000000000
  0.0549200000000000  0.9450800000000000  0.9084800000000001
  0.9450800000000000  0.0549200000000000  0.0915200000000000
  0.7904499999999999  0.2095500000000000  0.1976200000000000
  0.7370800000000000  0.2629200000000000  0.4622400000000000
  0.2629200000000000  0.7370800000000000  0.5377600000000000
  0.2095499999999999  0.7904500000000000  0.8023800000000000
  0.0000000000000000  0.0000000000000000  0.5000000000000000
  0.6547099999999999  0.3452900000000000  0.8825900000000000
  0.3452899999999999  0.6547100000000000  0.1174100000000000
  0.8762000000000000  0.1238000000000000  0.7709100000000000
  0.1237999999999999  0.8762000000000000  0.2290900000000000
  0.6495200000000000  0.3504800000000000  0.0446700000000000
  0.6118400000000001  0.3881600000000000  0.5952300000000000
  0.3881599999999998  0.6118400000000001  0.4047700000000000
  0.3504799999999999  0.6495200000000000  0.9553300000000000
