Mg Fe Se  C 
 1.0000000000000000
     3.3121000000000000    0.0000000000000000    0.0000000000000000
    -1.6560499999999991    2.8683627398744393    0.0000000000000000
     0.0000000000000000    0.0000000000000000    9.0113000000000003
 Mg  Fe  Se  C  
   2   2   2   1
Direct
  0.6666600000000003  0.3333300000000000  0.6006300000000000
  0.3333400000000000  0.6666700000000000  0.3993700000000000
  0.6666800000000001  0.3333400000000000  0.9180800000000000
  0.3333200000000001  0.6666600000000000  0.0819200000000000
  0.6666700000000001  0.3333400000000000  0.2288100000000000
  0.3333300000000001  0.6666600000000000  0.7711900000000002
  0.0000000000000000  0.0000000000000000  0.0000000000000000
