 W  S  B 
 1.0000000000000000
     3.2709999999999999    0.0000000000000000    0.0000000000000000
    -1.6354999999999993    2.8327690957788989    0.0000000000000000
     0.0000000000000000    0.0000000000000000   25.4780000000000015
 W   S   B  
   6   6   3
Direct
  0.9999999999999997  0.9999999999999998  0.6370500000000000
  0.0000000000000000  0.0000000000000000  0.3629500000000000
  0.6666700000000000  0.3333300000000000  0.9704000000000000
  0.6666700000000000  0.3333300000000000  0.6962599999999998
  0.3333300000000000  0.6666700000000000  0.3037400000000000
  0.3333300000000000  0.6666700000000000  0.0296000000000000
  0.9999900000000000  0.0000100000000000  0.7664500000000000
  0.0000100000000000  0.9999899999999999  0.2335500000000000
  0.6666800000000001  0.3333199999999999  0.0997700000000000
  0.6666700000000000  0.3333300000000000  0.5669000000000000
  0.3333300000000000  0.6666700000000000  0.4331000000000000
  0.3333199999999999  0.6666800000000001  0.9002299999999998
  0.0000000000000000  0.0000000000000000  0.0000000000000000
  0.6666600000000000  0.3333400000000000  0.3333300000000000
  0.3333400000000000  0.6666600000000000  0.6666699999999999
