Mn Ru Se  C 
 1.0000000000000000
     3.3121000000000000    0.0000000000000000    0.0000000000000000
    -1.6560499999999991    2.8683627398744393    0.0000000000000000
     0.0000000000000000    0.0000000000000000    9.0113000000000003
 Mn  Ru  Se  C  
   2   2   2   1
Direct
  0.6667000000000001  0.3333500000000000  0.5758100000000000
  0.3333000000000001  0.6666500000000000  0.4241900000000000
  0.6667000000000001  0.3333500000000000  0.8979699999999999
  0.3333000000000001  0.6666500000000000  0.1020300000000000
  0.6667000000000001  0.3333500000000000  0.2896000000000000
  0.3333000000000001  0.6666500000000000  0.7104000000000000
  0.0000000000000000  0.0000000000000000  0.0000000000000000
