Pt Te Ga 
 1.0000000000000000
     3.2709999999999999    0.0000000000000000    0.0000000000000000
    -1.6354999999999993    2.8327690957788989    0.0000000000000000
     0.0000000000000000    0.0000000000000000   25.4780000000000015
 Pt  Te  Ga 
   6   6   3
Direct
  0.0000000000000000  0.0000000000000000  0.5987700000000000
  0.9999999999999997  0.9999999999999998  0.4012300000000000
  0.6666600000000000  0.3333400000000000  0.9321099999999999
  0.6666600000000000  0.3333400000000000  0.7345600000000000
  0.3333400000000000  0.6666600000000000  0.2654400000000000
  0.3333400000000000  0.6666600000000000  0.0678900000000000
  0.0000000000000000  0.0000000000000000  0.7983400000000000
  0.9999999999999997  0.9999999999999998  0.2016600000000000
  0.6666600000000000  0.3333400000000000  0.1316700000000000
  0.6666600000000000  0.3333400000000000  0.5349900000000000
  0.3333400000000000  0.6666600000000000  0.4650100000000000
  0.3333400000000000  0.6666600000000000  0.8683299999999998
  0.0000000000000000  0.0000000000000000  0.0000000000000000
  0.6666600000000000  0.3333400000000000  0.3333300000000000
  0.3333400000000000  0.6666600000000000  0.6666699999999999
