Cr Os  N  S 
 1.0000000000000000
     3.3029999999999999    0.0000000000000000    0.0000000000000000
    -1.6514999999999991    2.8604819087000011    0.0000000000000000
     0.0000000000000000    0.0000000000000000   25.8299999999999983
 Cr  Os  N   S  
   3   6   3   6
Direct
  0.0000000000000000  0.0000000000000000  0.0000000000000000
  0.6674499999999999  0.3325500000000000  0.3653000000000000
  0.3325500000000000  0.6674500000000000  0.6347000000000000
  0.0495200000000001  0.9504800000000000  0.9086800000000002
  0.9504799999999999  0.0495200000000000  0.0913200000000000
  0.6672500000000000  0.3327500000000000  0.2798700000000000
  0.6664399999999999  0.3335600000000000  0.4550100000000000
  0.3335600000000000  0.6664400000000000  0.5449900000000000
  0.3327500000000000  0.6672500000000000  0.7201300000000000
  0.0000000000000000  0.0000000000000000  0.5000000000000000
  0.6292400000000000  0.3707600000000000  0.8814600000000000
  0.3707600000000000  0.6292400000000000  0.1185400000000000
  0.9994700000000000  0.0005300000000000  0.6805400000000000
  0.0005300000000000  0.9994700000000001  0.3194600000000000
  0.6531099999999997  0.3468900000000000  0.0421600000000000
  0.6667200000000000  0.3332800000000000  0.5842900000000000
  0.3332800000000000  0.6667200000000000  0.4157100000000000
  0.3468900000000000  0.6531100000000000  0.9578400000000000
