Cu Se  B 
 1.0000000000000000
     3.2709999999999999    0.0000000000000000    0.0000000000000000
    -1.6354999999999993    2.8327690957788989    0.0000000000000000
     0.0000000000000000    0.0000000000000000   25.4780000000000015
 Cu  Se  B  
   6   6   3
Direct
  0.9999999999999997  0.9999999999999998  0.6183200000000000
  0.0000000000000000  0.0000000000000000  0.3816799999999999
  0.6666600000000000  0.3333400000000000  0.9516500000000000
  0.6666700000000000  0.3333300000000000  0.7150100000000000
  0.3333300000000000  0.6666700000000000  0.2849900000000000
  0.3333400000000000  0.6666600000000000  0.0483500000000000
  0.0000300000000000  0.9999700000000000  0.7918200000000000
  0.9999700000000000  0.0000300000000000  0.2081800000000000
  0.6666900000000000  0.3333099999999999  0.1251500000000000
  0.6667299999999999  0.3332700000000000  0.5415100000000000
  0.3332700000000000  0.6667299999999999  0.4584900000000000
  0.3333100000000000  0.6666900000000000  0.8748499999999998
  0.0000000000000000  0.0000000000000000  0.0000000000000000
  0.6666900000000000  0.3333099999999999  0.3333300000000000
  0.3333100000000000  0.6666900000000000  0.6666699999999999
