Ru  N Te 
 1.0000000000000000
     3.3435999999999999    0.0000000000000000    0.0000000000000000
    -1.6717999999999991    2.8956425400936490    0.0000000000000000
     0.0000000000000000    0.0000000000000000   11.5808999999999997
 Ru  N   Te 
   4   2   2
Direct
  0.3333300000000000  0.6666699999999999  0.4213799999999999
  0.6666700000000000  0.3333300000000000  0.5786200000000000
  0.6666700000000000  0.3333300000000000  0.9213800000000000
  0.3333300000000000  0.6666699999999999  0.0786200000000000
  0.0000000000000000  0.0000000000000000  0.0000000000000000
  0.0000000000000000  0.0000000000000000  0.5000000000000000
  0.3333400000000000  0.6666599999999999  0.7500000000000000
  0.6666600000000000  0.3333400000000000  0.2500000000000000
