Zr Se  P 
 1.0000000000000000
     3.2709999999999999    0.0000000000000000    0.0000000000000000
    -1.6354999999999993    2.8327690957788989    0.0000000000000000
     0.0000000000000000    0.0000000000000000   25.4780000000000015
 Zr  Se  P  
   6   6   3
Direct
  0.1129200000000000  0.8870799999999999  0.6365300000000000
  0.8870800000000002  0.1129200000000000  0.3634700000000000
  0.6668099999999999  0.3331900000000000  0.9688700000000000
  0.7803400000000000  0.2196600000000000  0.7001299999999999
  0.2196600000000001  0.7803400000000000  0.2998700000000000
  0.3331900000000000  0.6668099999999999  0.0311300000000000
  0.0628799999999999  0.9371199999999998  0.7729900000000000
  0.9371199999999997  0.0628800000000000  0.2270100000000000
  0.6641899999999999  0.3358100000000000  0.1102500000000000
  0.6396999999999999  0.3603000000000000  0.5560300000000000
  0.3603000000000000  0.6396999999999999  0.4439700000000000
  0.3358100000000000  0.6641899999999999  0.8897499999999999
  0.0000000000000000  0.0000000000000000  0.0000000000000000
  0.5558500000000000  0.4441499999999999  0.3337400000000000
  0.4441499999999999  0.5558499999999998  0.6662600000000000
