 Y Se Pb 
 1.0000000000000000
     3.2709999999999999    0.0000000000000000    0.0000000000000000
    -1.6354999999999993    2.8327690957788989    0.0000000000000000
     0.0000000000000000    0.0000000000000000   25.4780000000000015
 Y   Se  Pb 
   6   6   3
Direct
  0.0000500000000000  0.9999500000000000  0.5754800000000000
  0.9999500000000000  0.0000500000000000  0.4245199999999999
  0.6667600000000000  0.3332399999999999  0.9088100000000000
  0.6667900000000000  0.3332100000000000  0.7578599999999999
  0.3332099999999999  0.6667899999999999  0.2421400000000000
  0.3332399999999999  0.6667599999999999  0.0911900000000000
  0.0000900000000000  0.9999100000000000  0.7887000000000000
  0.9999100000000000  0.0000900000000000  0.2113000000000000
  0.6666399999999999  0.3333600000000000  0.1220300000000000
  0.6667500000000000  0.3332500000000000  0.5446400000000000
  0.3332500000000000  0.6667500000000000  0.4553600000000000
  0.3333600000000000  0.6666399999999999  0.8779700000000000
  0.0000000000000000  0.0000000000000000  0.0000000000000000
  0.6670400000000000  0.3329599999999999  0.3333300000000000
  0.3329599999999999  0.6670399999999999  0.6666699999999999
