Hf Se As 
 1.0000000000000000
     3.2709999999999999    0.0000000000000000    0.0000000000000000
    -1.6354999999999993    2.8327690957788989    0.0000000000000000
     0.0000000000000000    0.0000000000000000   25.4780000000000015
 Hf  Se  As 
   6   6   3
Direct
  0.1258099999999999  0.8741899999999998  0.6316300000000000
  0.8741900000000000  0.1258100000000000  0.3683700000000000
  0.6668700000000000  0.3331299999999999  0.9654800000000000
  0.8243000000000000  0.1757000000000000  0.7452800000000001
  0.1756999999999999  0.8242999999999998  0.2547200000000000
  0.3331299999999999  0.6668699999999999  0.0345200000000000
  0.1509699999999999  0.8490299999999997  0.7831200000000000
  0.8490300000000000  0.1509700000000000  0.2168800000000000
  0.6568300000000000  0.3431699999999999  0.1094700000000000
  0.6392699999999999  0.3607300000000000  0.5562500000000000
  0.3607300000000001  0.6392700000000000  0.4437500000000000
  0.3431700000000000  0.6568300000000000  0.8905300000000000
  0.0000000000000000  0.0000000000000000  0.0000000000000000
  0.5446100000000000  0.4553900000000000  0.3344300000000000
  0.4553900000000000  0.5446099999999999  0.6655700000000000
