Ru  S  P 
 1.0000000000000000
     3.2690000000000001    0.0000000000000000    0.0000000000000000
    -1.6344999999999994    2.8310370449713305    0.0000000000000000
     0.0000000000000000    0.0000000000000000    8.5470000000000006
 Ru  S   P  
   2   2   1
Direct
  0.5978500000000000  0.2989200000000000  0.8687700000000000
  0.4021500000000000  0.7010800000000001  0.1312300000000000
  0.4139299999999999  0.2069700000000000  0.3067600000000000
  0.5860700000000000  0.7930300000000000  0.6932400000000000
  0.0000000000000000  0.0000000000000000  0.0000000000000000
