Zn Mn  S  N 
 1.0000000000000000
     3.3121000000000000    0.0000000000000000    0.0000000000000000
    -1.6560499999999994    2.8683627398744393    0.0000000000000000
     0.0000000000000000    0.0000000000000000    9.0113000000000003
 Zn  Mn  S   N  
   2   2   2   1
Direct
  0.6666400000000001  0.3333200000000000  0.5912100000000000
  0.3333600000000001  0.6666800000000001  0.4087900000000000
  0.6667100000000000  0.3333500000000000  0.9140200000000001
  0.3332900000000001  0.6666500000000000  0.0859800000000000
  0.6666400000000001  0.3333200000000000  0.2451900000000000
  0.3333600000000001  0.6666800000000001  0.7548100000000000
  0.0000000000000000  0.0000000000000000  0.0000000000000000
