Zr  S  P 
 1.0000000000000000
     3.2690000000000001    0.0000000000000000    0.0000000000000000
    -1.6344999999999994    2.8310370449713305    0.0000000000000000
     0.0000000000000000    0.0000000000000000    8.5470000000000006
 Zr  S   P  
   2   2   1
Direct
  0.6666299999999999  0.3333200000000001  0.9065000000000000
  0.3333699999999999  0.6666800000000001  0.0935000000000000
  0.6673500000000000  0.3336700000000001  0.3444200000000000
  0.3326500000000000  0.6663300000000001  0.6555800000000001
  0.0000000000000000  0.0000000000000000  0.0000000000000000
