Au  S Al 
 1.0000000000000000
     3.2709999999999999    0.0000000000000000    0.0000000000000000
    -1.6354999999999993    2.8327690957788989    0.0000000000000000
     0.0000000000000000    0.0000000000000000   25.4780000000000015
 Au  S   Al 
   6   6   3
Direct
  0.0025099999999999  0.9974899999999999  0.5802400000000000
  0.9974900000000000  0.0025100000000000  0.4197600000000000
  0.6688200000000000  0.3311800000000000  0.9237600000000000
  0.6370600000000000  0.3629400000000000  0.7384399999999998
  0.3629399999999999  0.6370599999999998  0.2615600000000000
  0.3311799999999999  0.6688199999999999  0.0762400000000000
  0.0193300000000000  0.9806699999999999  0.8240300000000000
  0.9806700000000000  0.0193300000000000  0.1759700000000000
  0.6794900000000000  0.3205100000000000  0.1533700000000000
  0.6756200000000000  0.3243800000000000  0.5124100000000000
  0.3243800000000000  0.6756200000000000  0.4875900000000000
  0.3205100000000000  0.6794900000000000  0.8466300000000000
  0.0000000000000000  0.0000000000000000  0.0000000000000000
  0.6937300000000000  0.3062700000000000  0.3307400000000000
  0.3062700000000000  0.6937300000000000  0.6692600000000000
