Nb  S Ge 
 1.0000000000000000
     3.2709999999999999    0.0000000000000000    0.0000000000000000
    -1.6354999999999993    2.8327690957788989    0.0000000000000000
     0.0000000000000000    0.0000000000000000   25.4780000000000015
 Nb  S   Ge 
   6   6   3
Direct
  0.0052799999999999  0.9947199999999999  0.5749100000000000
  0.9947200000000000  0.0052800000000000  0.4250900000000000
  0.7743399999999999  0.2256600000000000  0.9121500000000000
  0.7051800000000000  0.2948200000000000  0.7497199999999999
  0.2948200000000000  0.7051800000000000  0.2502800000000000
  0.2256599999999999  0.7743399999999998  0.0878500000000000
  0.0384799999999999  0.9615199999999999  0.7786200000000000
  0.9615199999999999  0.0384800000000000  0.2213800000000000
  0.5677100000000000  0.4322900000000000  0.1160500000000000
  0.6710700000000001  0.3289299999999999  0.5477500000000000
  0.3289299999999999  0.6710700000000001  0.4522500000000000
  0.4322900000000000  0.5677100000000000  0.8839499999999999
  0.0000000000000000  0.0000000000000000  0.0000000000000000
  0.9648099999999999  0.0351900000000000  0.3235000000000000
  0.0351899999999999  0.9648099999999997  0.6765000000000000
