Zn Cr  S  N 
 1.0000000000000000
     3.3121000000000000    0.0000000000000000    0.0000000000000000
    -1.6560499999999994    2.8683627398744393    0.0000000000000000
     0.0000000000000000    0.0000000000000000    9.0113000000000003
 Zn  Cr  S   N  
   2   2   2   1
Direct
  0.6666800000000001  0.3333400000000000  0.5895400000000000
  0.3333200000000001  0.6666600000000000  0.4104600000000000
  0.6666700000000001  0.3333400000000000  0.9139200000000000
  0.3333300000000001  0.6666600000000000  0.0860800000000000
  0.6666600000000003  0.3333300000000000  0.2428400000000000
  0.3333400000000000  0.6666700000000000  0.7571600000000002
  0.0000000000000000  0.0000000000000000  0.0000000000000000
