 V Rh  S  C 
 1.0000000000000000
     3.3121000000000000    0.0000000000000000    0.0000000000000000
    -1.6560499999999991    2.8683627398744393    0.0000000000000000
     0.0000000000000000    0.0000000000000000    9.0113000000000003
 V   Rh  S   C  
   2   2   2   1
Direct
  0.6666600000000003  0.3333300000000000  0.5824300000000000
  0.3333400000000000  0.6666700000000000  0.4175700000000000
  0.6666500000000000  0.3333200000000000  0.8933700000000000
  0.3333500000000000  0.6666800000000001  0.1066300000000000
  0.6666700000000001  0.3333300000000000  0.2937800000000000
  0.3333300000000001  0.6666700000000000  0.7062200000000000
  0.0000000000000000  0.0000000000000000  0.0000000000000000
