Pd Te  P 
 1.0000000000000000
     3.2709999999999999    0.0000000000000000    0.0000000000000000
    -1.6354999999999993    2.8327690957788989    0.0000000000000000
     0.0000000000000000    0.0000000000000000   25.4780000000000015
 Pd  Te  P  
   6   6   3
Direct
  0.9999999999999997  0.9999999999999998  0.6162700000000000
  0.0000000000000000  0.0000000000000000  0.3837300000000000
  0.6666700000000000  0.3333300000000000  0.9496000000000000
  0.6666700000000000  0.3333300000000000  0.7170700000000000
  0.3333300000000000  0.6666700000000000  0.2829300000000000
  0.3333300000000000  0.6666700000000000  0.0504000000000000
  0.9999999999999997  0.9999999999999998  0.7822700000000000
  0.0000000000000000  0.0000000000000000  0.2177300000000000
  0.6666700000000000  0.3333300000000000  0.1156100000000000
  0.6666700000000000  0.3333300000000000  0.5510600000000000
  0.3333300000000000  0.6666700000000000  0.4489400000000000
  0.3333300000000000  0.6666700000000000  0.8843899999999999
  0.0000000000000000  0.0000000000000000  0.0000000000000000
  0.6666700000000000  0.3333300000000000  0.3333300000000000
  0.3333300000000000  0.6666700000000000  0.6666699999999999
