Li Pt  N  S 
 1.0000000000000000
     3.3029999999999999    0.0000000000000000    0.0000000000000000
    -1.6514999999999991    2.8604819087000011    0.0000000000000000
     0.0000000000000000    0.0000000000000000   25.8299999999999983
 Li  Pt  N   S  
   3   6   3   6
Direct
  0.0000000000000000  0.0000000000000000  0.0000000000000000
  0.6666700000000000  0.3333300000000000  0.3333300000000001
  0.3333300000000000  0.6666700000000000  0.6666700000000001
  0.0000000000000000  0.0000000000000000  0.8780800000000000
  0.0000000000000000  0.0000000000000000  0.1219200000000000
  0.6666700000000000  0.3333300000000000  0.2113200000000000
  0.6666600000000000  0.3333400000000000  0.4553000000000000
  0.3333400000000000  0.6666600000000000  0.5447000000000000
  0.3333300000000000  0.6666700000000000  0.7886800000000000
  0.0000000000000000  0.0000000000000000  0.5000000000000000
  0.6666700000000000  0.3333300000000000  0.8335600000000000
  0.3333300000000000  0.6666700000000000  0.1664400000000000
  0.0000000000000000  0.0000000000000000  0.7388200000000000
  0.0000000000000000  0.0000000000000000  0.2611800000000000
  0.6666700000000000  0.3333300000000000  0.0721500000000000
  0.6666700000000000  0.3333300000000000  0.5945100000000000
  0.3333300000000000  0.6666700000000000  0.4054900000000000
  0.3333300000000000  0.6666700000000000  0.9278500000000001
