Zr  S As 
 1.0000000000000000
     3.2690000000000001    0.0000000000000000    0.0000000000000000
    -1.6344999999999994    2.8310370449713305    0.0000000000000000
     0.0000000000000000    0.0000000000000000    8.5470000000000006
 Zr  S   As 
   2   2   1
Direct
  0.9612399999999998  0.4806200000000001  0.7527300000000000
  0.0387600000000000  0.5193800000000000  0.2472700000000000
  0.3753399999999999  0.1876700000000000  0.3335300000000000
  0.6246600000000000  0.8123300000000000  0.6664700000000000
  0.0000000000000000  0.0000000000000000  0.0000000000000000
