 V Se Bi 
 1.0000000000000000
     3.2690000000000001    0.0000000000000000    0.0000000000000000
    -1.6344999999999994    2.8310370449713305    0.0000000000000000
     0.0000000000000000    0.0000000000000000    8.5470000000000006
 V   Se  Bi 
   2   2   1
Direct
  0.6650300000000000  0.3325100000000000  0.7453800000000000
  0.3349700000000000  0.6674900000000000  0.2546200000000000
  0.6679299999999999  0.3339700000000000  0.3360900000000000
  0.3320699999999999  0.6660300000000001  0.6639100000000000
  0.0000000000000000  0.0000000000000000  0.0000000000000000
