Ag Te Sn 
 1.0000000000000000
     3.2709999999999999    0.0000000000000000    0.0000000000000000
    -1.6354999999999993    2.8327690957788989    0.0000000000000000
     0.0000000000000000    0.0000000000000000   25.4780000000000015
 Ag  Te  Sn 
   6   6   3
Direct
  0.0149799999999999  0.9850199999999998  0.6112000000000000
  0.9850200000000000  0.0149800000000000  0.3887999999999999
  0.6675900000000000  0.3324099999999999  0.9342300000000000
  0.6953700000000000  0.3046300000000000  0.7452600000000000
  0.3046300000000000  0.6953700000000000  0.2547400000000000
  0.3324100000000000  0.6675900000000000  0.0657700000000000
  0.0288900000000000  0.9711100000000000  0.8103299999999999
  0.9711099999999999  0.0288900000000000  0.1896700000000000
  0.6716299999999998  0.3283699999999999  0.1304000000000000
  0.6430599999999999  0.3569400000000000  0.5391300000000000
  0.3569399999999999  0.6430600000000000  0.4608700000000000
  0.3283700000000000  0.6716299999999998  0.8695999999999999
  0.0000000000000000  0.0000000000000000  0.0000000000000000
  0.6325600000000000  0.3674399999999999  0.3220100000000000
  0.3674400000000000  0.6325600000000000  0.6779899999999998
