Zn Te Al 
 1.0000000000000000
     3.2709999999999999    0.0000000000000000    0.0000000000000000
    -1.6354999999999993    2.8327690957788989    0.0000000000000000
     0.0000000000000000    0.0000000000000000   25.4780000000000015
 Zn  Te  Al 
   6   6   3
Direct
  0.9847499999999998  0.0152500000000000  0.5951100000000000
  0.0152500000000000  0.9847499999999999  0.4048900000000000
  0.6968800000000001  0.3031200000000000  0.9338200000000000
  0.6115699999999999  0.3884299999999999  0.7227399999999999
  0.3884299999999999  0.6115699999999999  0.2772600000000000
  0.3031200000000001  0.6968799999999999  0.0661800000000000
  0.0935300000000000  0.9064700000000000  0.7900000000000000
  0.9064699999999999  0.0935300000000000  0.2100000000000000
  0.6349700000000000  0.3650300000000000  0.1321000000000000
  0.6615499999999999  0.3384499999999999  0.5327800000000000
  0.3384499999999999  0.6615499999999999  0.4672200000000000
  0.3650300000000000  0.6349699999999999  0.8678999999999998
  0.0000000000000000  0.0000000000000000  0.0000000000000000
  0.7146000000000000  0.2853999999999999  0.3392500000000000
  0.2854000000000000  0.7146000000000000  0.6607499999999997
