Re  S  N 
 1.0000000000000000
     3.2709999999999999    0.0000000000000000    0.0000000000000000
    -1.6354999999999991    2.8327690957788989    0.0000000000000000
     0.0000000000000000    0.0000000000000000   25.4780000000000015
 Re  S   N  
   6   6   3
Direct
  0.0000000000000000  0.0000000000000000  0.6283100000000000
  0.9999999999999997  0.9999999999999998  0.3716900000000000
  0.6666700000000000  0.3333300000000000  0.9616799999999999
  0.6666700000000000  0.3333300000000000  0.7049600000000000
  0.3333300000000000  0.6666700000000000  0.2950400000000000
  0.3333300000000000  0.6666700000000000  0.0383200000000000
  0.0000000000000000  0.0000000000000000  0.7643699999999999
  0.9999999999999997  0.9999999999999998  0.2356300000000000
  0.6666600000000000  0.3333400000000000  0.0977000000000000
  0.6666700000000000  0.3333300000000000  0.5689600000000000
  0.3333300000000000  0.6666700000000000  0.4310399999999999
  0.3333400000000000  0.6666600000000000  0.9023000000000000
  0.0000000000000000  0.0000000000000000  0.0000000000000000
  0.6666700000000000  0.3333300000000000  0.3332700000000000
  0.3333300000000000  0.6666700000000000  0.6667300000000000
