Ni Cu  C  S
 1.0000000000000000
     3.3029999999999999    0.0000000000000000    0.0000000000000000
    -1.6514999999999991    2.8604819087000011    0.0000000000000000
     0.0000000000000000    0.0000000000000000   25.8299999999999983
 Ni  Cu  C   S
   3   6   3   6
Direct
  0.0000000000000000  0.0000000000000000  0.0000000000000000
  0.6666700000000000  0.3333300000000000  0.3333300000000001
  0.3333300000000000  0.6666700000000000  0.6666700000000001
  0.0000000000000000  0.0000000000000000  0.8669400000000002
  0.0000000000000000  0.0000000000000000  0.1330600000000000
  0.6666700000000000  0.3333300000000000  0.2002700000000000
  0.6666700000000000  0.3333300000000000  0.4664000000000000
  0.3333300000000000  0.6666700000000000  0.5336000000000000
  0.3333300000000000  0.6666700000000000  0.7997300000000001
  0.0000000000000000  0.0000000000000000  0.5000000000000000
  0.6666700000000000  0.3333300000000000  0.8333300000000000
  0.3333300000000000  0.6666700000000000  0.1666700000000000
  0.0000000000000000  0.0000000000000000  0.7153100000000002
  0.0000000000000000  0.0000000000000000  0.2846900000000000
  0.6666700000000000  0.3333300000000000  0.0486400000000000
  0.6666600000000000  0.3333400000000000  0.6180300000000000
  0.3333400000000000  0.6666600000000000  0.3819700000000000
  0.3333300000000000  0.6666700000000000  0.9513600000000000
