 Y Se  C 
 1.0000000000000000
     3.2709999999999999    0.0000000000000000    0.0000000000000000
    -1.6354999999999991    2.8327690957788989    0.0000000000000000
     0.0000000000000000    0.0000000000000000   25.4780000000000015
 Y   Se  C  
   6   6   3
Direct
  0.9999999999999997  0.9999999999999998  0.6142800000000000
  0.0000000000000000  0.0000000000000000  0.3857200000000000
  0.6666700000000000  0.3333300000000000  0.9476099999999998
  0.6666700000000000  0.3333300000000000  0.7190500000000000
  0.3333300000000000  0.6666700000000000  0.2809500000000000
  0.3333300000000000  0.6666700000000000  0.0523900000000000
  0.9999999999999997  0.9999999999999998  0.7950999999999999
  0.0000000000000000  0.0000000000000000  0.2049000000000000
  0.6666700000000000  0.3333300000000000  0.1284300000000000
  0.6666700000000000  0.3333300000000000  0.5382300000000000
  0.3333300000000000  0.6666700000000000  0.4617700000000000
  0.3333300000000000  0.6666700000000000  0.8715700000000000
  0.0000000000000000  0.0000000000000000  0.0000000000000000
  0.6666700000000000  0.3333300000000000  0.3333300000000000
  0.3333300000000000  0.6666700000000000  0.6666699999999999
