Zr Te Sb 
 1.0000000000000000
     3.2709999999999999    0.0000000000000000    0.0000000000000000
    -1.6354999999999993    2.8327690957788989    0.0000000000000000
     0.0000000000000000    0.0000000000000000   25.4780000000000015
 Zr  Te  Sb 
   6   6   3
Direct
  0.0000100000000000  0.9999899999999999  0.6108100000000000
  0.9999900000000000  0.0000100000000000  0.3891900000000000
  0.6666700000000000  0.3333300000000000  0.9441399999999999
  0.6666800000000001  0.3333199999999999  0.7225200000000001
  0.3333199999999999  0.6666800000000001  0.2774800000000000
  0.3333300000000000  0.6666700000000000  0.0558600000000000
  0.9999900000000000  0.0000100000000000  0.7784000000000000
  0.0000100000000000  0.9999899999999999  0.2216000000000000
  0.6666700000000000  0.3333300000000000  0.1117300000000000
  0.6666600000000000  0.3333400000000000  0.5549300000000000
  0.3333400000000000  0.6666600000000000  0.4450700000000000
  0.3333300000000000  0.6666700000000000  0.8882700000000000
  0.0000000000000000  0.0000000000000000  0.0000000000000000
  0.6666800000000001  0.3333199999999999  0.3333300000000000
  0.3333199999999999  0.6666800000000001  0.6666699999999999
