Fe Bi Te 
 1.0000000000000000
     3.3435999999999999    0.0000000000000000    0.0000000000000000
    -1.6717999999999993    2.8956425400936490    0.0000000000000000
     0.0000000000000000    0.0000000000000000   11.5808999999999997
 Fe  Bi  Te 
   4   2   2
Direct
  0.3349200000000000  0.6650800000000000  0.3500400000000000
  0.6650800000000000  0.3349200000000000  0.6499600000000000
  0.6650800000000000  0.3349200000000000  0.8500399999999999
  0.3349200000000000  0.6650800000000000  0.1499600000000000
  0.0000000000000000  0.0000000000000000  0.0000000000000000
  0.0000000000000000  0.0000000000000000  0.5000000000000000
  0.3316400000000000  0.6683600000000000  0.7500000000000000
  0.6683600000000000  0.3316400000000000  0.2500000000000000
