Cr Co  S  C 
 1.0000000000000000
     3.3121000000000000    0.0000000000000000    0.0000000000000000
    -1.6560499999999991    2.8683627398744393    0.0000000000000000
     0.0000000000000000    0.0000000000000000    9.0113000000000003
 Cr  Co  S   C  
   2   2   2   1
Direct
  0.6667700000000000  0.3333800000000000  0.5930900000000000
  0.3332300000000001  0.6666200000000000  0.4069100000000000
  0.6666300000000002  0.3333200000000000  0.9082300000000000
  0.3333700000000000  0.6666800000000001  0.0917700000000000
  0.6666700000000001  0.3333300000000000  0.2801700000000000
  0.3333300000000001  0.6666700000000000  0.7198300000000000
  0.0000000000000000  0.0000000000000000  0.0000000000000000
