Sc Ru  N Se 
 1.0000000000000000
     3.3029999999999999    0.0000000000000000    0.0000000000000000
    -1.6514999999999993    2.8604819087000011    0.0000000000000000
     0.0000000000000000    0.0000000000000000   25.8299999999999983
 Sc  Ru  N   Se 
   3   6   3   6
Direct
  0.0000000000000000  0.0000000000000000  0.0000000000000000
  0.7477700000000000  0.2522300000000000  0.3629400000000000
  0.2522300000000000  0.7477700000000002  0.6370600000000000
  0.0012800000000001  0.9987200000000002  0.8947700000000002
  0.9987199999999999  0.0012800000000000  0.1052300000000000
  0.6559799999999999  0.3440200000000000  0.1987000000000000
  0.7523700000000000  0.2476300000000000  0.4605900000000000
  0.2476299999999999  0.7523699999999999  0.5394099999999999
  0.3440199999999999  0.6559800000000000  0.8013000000000000
  0.0000000000000000  0.0000000000000000  0.5000000000000000
  0.6682200000000000  0.3317800000000000  0.8672000000000001
  0.3317800000000000  0.6682200000000000  0.1328000000000000
  0.0110900000000000  0.9889100000000001  0.7601599999999999
  0.9889099999999998  0.0110900000000000  0.2398400000000000
  0.6658400000000000  0.3341600000000000  0.0574700000000000
  0.5856900000000000  0.4143100000000000  0.6040200000000000
  0.4143099999999999  0.5856900000000000  0.3959800000000000
  0.3341600000000000  0.6658400000000000  0.9425300000000000
