Ru  B Se 
 1.0000000000000000
     3.3435999999999999    0.0000000000000000    0.0000000000000000
    -1.6717999999999993    2.8956425400936490    0.0000000000000000
     0.0000000000000000    0.0000000000000000   11.5808999999999997
 Ru  B   Se 
   4   2   2
Direct
  0.3499100000000000  0.6500899999999999  0.4150699999999999
  0.6500899999999999  0.3499100000000000  0.5849299999999999
  0.6500300000000000  0.3499700000000000  0.9150800000000000
  0.3499700000000000  0.6500300000000000  0.0849200000000000
  0.0000000000000000  0.0000000000000000  0.0000000000000000
  0.0000000000000000  0.0000000000000000  0.5000000000000000
  0.1540700000000000  0.8459300000000000  0.7499300000000001
  0.8459300000000000  0.1540700000000000  0.2500700000000000
