Ru  S  P 
 1.0000000000000000
     3.2709999999999999    0.0000000000000000    0.0000000000000000
    -1.6354999999999993    2.8327690957788989    0.0000000000000000
     0.0000000000000000    0.0000000000000000   25.4780000000000015
 Ru  S   P  
   6   6   3
Direct
  0.8830899999999999  0.1169100000000000  0.6121200000000000
  0.1169099999999999  0.8830900000000000  0.3878800000000000
  0.7005900000000000  0.2994100000000000  0.9562500000000000
  0.6753900000000000  0.3246100000000000  0.7033000000000000
  0.3246100000000000  0.6753900000000000  0.2967000000000000
  0.2994099999999999  0.7005900000000000  0.0437500000000000
  0.1637200000000000  0.8362799999999999  0.7730399999999999
  0.8362800000000000  0.1637200000000000  0.2269600000000000
  0.7847099999999999  0.2152900000000000  0.1018400000000000
  0.5816500000000000  0.4183499999999999  0.5627700000000000
  0.4183500000000000  0.5816500000000000  0.4372300000000000
  0.2152899999999999  0.7847099999999998  0.8981600000000000
  0.0000000000000000  0.0000000000000000  0.0000000000000000
  0.6480200000000000  0.3519800000000000  0.3315299999999999
  0.3519800000000000  0.6480200000000000  0.6684700000000000
