Mn Sc  C Se
 1.0000000000000000
     3.3029999999999999    0.0000000000000000    0.0000000000000000
    -1.6514999999999991    2.8604819087000011    0.0000000000000000
     0.0000000000000000    0.0000000000000000   25.8299999999999983
 Mn  Sc  C   Se
   3   6   3   6
Direct
  0.0000000000000000  0.0000000000000000  0.0000000000000000
  0.6666700000000000  0.3333300000000000  0.3333300000000001
  0.3333300000000000  0.6666700000000000  0.6666700000000001
  0.0000000000000000  0.0000000000000000  0.8781200000000001
  0.0000000000000000  0.0000000000000000  0.1218800000000000
  0.6666600000000000  0.3333400000000000  0.2114500000000000
  0.6666700000000000  0.3333300000000000  0.4552100000000000
  0.3333300000000000  0.6666700000000000  0.5447900000000000
  0.3333400000000000  0.6666600000000000  0.7885500000000000
  0.0000000000000000  0.0000000000000000  0.5000000000000000
  0.6666700000000000  0.3333300000000000  0.8333300000000000
  0.3333300000000000  0.6666700000000000  0.1666700000000000
  0.0000100000000001  0.9999900000000002  0.7188600000000001
  0.9999899999999998  0.0000100000000000  0.2811400000000000
  0.6666800000000001  0.3333200000000000  0.0521900000000000
  0.6666600000000000  0.3333400000000000  0.6144700000000000
  0.3333400000000000  0.6666600000000000  0.3855300000000000
  0.3333200000000000  0.6666800000000001  0.9478100000000003
