Co  Y  N Se 
 1.0000000000000000
     3.3029999999999999    0.0000000000000000    0.0000000000000000
    -1.6514999999999993    2.8604819087000011    0.0000000000000000
     0.0000000000000000    0.0000000000000000   25.8299999999999983
 Co  Y   N   Se 
   3   6   3   6
Direct
  0.0000000000000000  0.0000000000000000  0.0000000000000000
  0.6666600000000000  0.3333400000000000  0.3333200000000000
  0.3333400000000000  0.6666600000000000  0.6666800000000002
  0.0000000000000000  0.0000000000000000  0.8633000000000000
  0.0000000000000000  0.0000000000000000  0.1367000000000000
  0.6666800000000001  0.3333200000000000  0.1965800000000000
  0.6666600000000000  0.3333400000000000  0.4700600000000000
  0.3333400000000000  0.6666600000000000  0.5299400000000000
  0.3333200000000000  0.6666800000000001  0.8034200000000000
  0.0000000000000000  0.0000000000000000  0.5000000000000000
  0.6666600000000000  0.3333400000000000  0.8333900000000000
  0.3333400000000000  0.6666600000000000  0.1666100000000000
  0.0000200000000001  0.9999800000000001  0.7177500000000000
  0.9999800000000000  0.0000200000000000  0.2822500000000000
  0.6666700000000000  0.3333300000000000  0.0510400000000000
  0.6666499999999999  0.3333500000000000  0.6156199999999999
  0.3333499999999999  0.6666500000000000  0.3843800000000000
  0.3333300000000000  0.6666700000000000  0.9489600000000000
