Hf Se  N 
 1.0000000000000000
     3.2709999999999999    0.0000000000000000    0.0000000000000000
    -1.6354999999999991    2.8327690957788989    0.0000000000000000
     0.0000000000000000    0.0000000000000000   25.4780000000000015
 Hf  Se  N  
   6   6   3
Direct
  0.0000000000000000  0.0000000000000000  0.6178200000000000
  0.9999999999999997  0.9999999999999998  0.3821800000000000
  0.6666600000000000  0.3333400000000000  0.9511500000000001
  0.6666700000000000  0.3333300000000000  0.7155099999999999
  0.3333300000000000  0.6666700000000000  0.2844900000000000
  0.3333400000000000  0.6666600000000000  0.0488500000000000
  0.9999999999999997  0.9999999999999998  0.7850100000000000
  0.0000000000000000  0.0000000000000000  0.2149900000000000
  0.6666700000000000  0.3333300000000000  0.1183400000000000
  0.6666700000000000  0.3333300000000000  0.5483300000000000
  0.3333300000000000  0.6666700000000000  0.4516700000000000
  0.3333300000000000  0.6666700000000000  0.8816599999999999
  0.0000000000000000  0.0000000000000000  0.0000000000000000
  0.6666700000000000  0.3333300000000000  0.3333300000000000
  0.3333300000000000  0.6666700000000000  0.6666699999999999
