 W  S Sb 
 1.0000000000000000
     3.2690000000000001    0.0000000000000000    0.0000000000000000
    -1.6344999999999994    2.8310370449713305    0.0000000000000000
     0.0000000000000000    0.0000000000000000    8.5470000000000006
 W   S   Sb 
   2   2   1
Direct
  0.4282800000000000  0.2141400000000000  0.7461900000000000
  0.5717199999999999  0.7858600000000001  0.2538100000000000
  0.8965799999999998  0.4482900000000000  0.3392300000000000
  0.1034200000000000  0.5517100000000001  0.6607700000000000
  0.0000000000000000  0.0000000000000000  0.0000000000000000
