Mo Si Te 
 1.0000000000000000
     3.3435999999999999    0.0000000000000000    0.0000000000000000
    -1.6717999999999993    2.8956425400936490    0.0000000000000000
     0.0000000000000000    0.0000000000000000   11.5808999999999997
 Mo  Si  Te 
   4   2   2
Direct
  0.3329100000000000  0.6670900000000000  0.4151200000000000
  0.6670900000000000  0.3329100000000000  0.5848800000000000
  0.6670900000000000  0.3329100000000000  0.9151199999999999
  0.3329100000000000  0.6670900000000000  0.0848800000000000
  0.0000000000000000  0.0000000000000000  0.0000000000000000
  0.0000000000000000  0.0000000000000000  0.5000000000000000
  0.2925500000000000  0.7074500000000000  0.7500000000000000
  0.7074500000000000  0.2925499999999999  0.2500000000000000
