Mg Pd  C Te
 1.0000000000000000
     3.3029999999999999    0.0000000000000000    0.0000000000000000
    -1.6514999999999993    2.8604819087000011    0.0000000000000000
     0.0000000000000000    0.0000000000000000   25.8299999999999983
 Mg  Pd  C   Te
   3   6   3   6
Direct
  0.0000000000000000  0.0000000000000000  0.0000000000000000
  0.6666700000000000  0.3333300000000000  0.3333300000000001
  0.3333300000000000  0.6666700000000000  0.6666700000000001
  0.0000000000000000  0.0000000000000000  0.8730300000000000
  0.0000000000000000  0.0000000000000000  0.1269700000000000
  0.6666700000000000  0.3333300000000000  0.2063600000000000
  0.6666700000000000  0.3333300000000000  0.4603100000000000
  0.3333300000000000  0.6666700000000000  0.5396900000000000
  0.3333300000000000  0.6666700000000000  0.7936400000000000
  0.0000000000000000  0.0000000000000000  0.5000000000000000
  0.6666700000000000  0.3333300000000000  0.8333300000000000
  0.3333300000000000  0.6666700000000000  0.1666700000000000
  0.0000000000000000  0.0000000000000000  0.7319000000000000
  0.0000000000000000  0.0000000000000000  0.2681000000000000
  0.6666700000000000  0.3333300000000000  0.0652400000000000
  0.6666700000000000  0.3333300000000000  0.6014300000000000
  0.3333300000000000  0.6666700000000000  0.3985700000000000
  0.3333300000000000  0.6666700000000000  0.9347600000000003
