Fe  V  C Te
 1.0000000000000000
     3.3029999999999999    0.0000000000000000    0.0000000000000000
    -1.6514999999999993    2.8604819087000011    0.0000000000000000
     0.0000000000000000    0.0000000000000000   25.8299999999999983
 Fe  V   C   Te
   3   6   3   6
Direct
  0.0000000000000000  0.0000000000000000  0.0000000000000000
  0.6666700000000000  0.3333300000000000  0.3333300000000001
  0.3333300000000000  0.6666700000000000  0.6666700000000001
  0.0000000000000000  0.0000000000000000  0.8573600000000000
  0.0000000000000000  0.0000000000000000  0.1426400000000000
  0.6666700000000000  0.3333300000000000  0.1906900000000000
  0.6666700000000000  0.3333300000000000  0.4759700000000000
  0.3333300000000000  0.6666700000000000  0.5240300000000000
  0.3333300000000000  0.6666700000000000  0.8093100000000000
  0.0000000000000000  0.0000000000000000  0.5000000000000000
  0.6666700000000000  0.3333300000000000  0.8333300000000000
  0.3333300000000000  0.6666700000000000  0.1666700000000000
  0.0000000000000000  0.0000000000000000  0.7240300000000000
  0.0000000000000000  0.0000000000000000  0.2759700000000000
  0.6666700000000000  0.3333300000000000  0.0573700000000000
  0.6666600000000000  0.3333400000000000  0.6093000000000000
  0.3333400000000000  0.6666600000000000  0.3907000000000000
  0.3333300000000000  0.6666700000000000  0.9426300000000000
