Cu  S Sn 
 1.0000000000000000
     3.2690000000000001    0.0000000000000000    0.0000000000000000
    -1.6344999999999994    2.8310370449713305    0.0000000000000000
     0.0000000000000000    0.0000000000000000    8.5470000000000006
 Cu  S   Sn 
   2   2   1
Direct
  0.6300800000000000  0.3150400000000000  0.7569900000000001
  0.3699200000000000  0.6849600000000000  0.2430100000000000
  0.6262400000000000  0.3131200000000001  0.5048700000000000
  0.3737600000000000  0.6868800000000000  0.4951300000000001
  0.0000000000000000  0.0000000000000000  0.0000000000000000
