Cr Ir  C  S
 1.0000000000000000
     3.3029999999999999    0.0000000000000000    0.0000000000000000
    -1.6514999999999991    2.8604819087000011    0.0000000000000000
     0.0000000000000000    0.0000000000000000   25.8299999999999983
 Cr  Ir  C   S
   3   6   3   6
Direct
  0.0000000000000000  0.0000000000000000  0.0000000000000000
  0.6666700000000000  0.3333300000000000  0.3333400000000001
  0.3333300000000000  0.6666700000000000  0.6666600000000001
  0.0000000000000000  0.0000000000000000  0.8719900000000003
  0.0000000000000000  0.0000000000000000  0.1280100000000000
  0.6666700000000000  0.3333300000000000  0.2053200000000000
  0.6666700000000000  0.3333300000000000  0.4613400000000000
  0.3333300000000000  0.6666700000000000  0.5386600000000000
  0.3333300000000000  0.6666700000000000  0.7946800000000001
  0.0000000000000000  0.0000000000000000  0.5000000000000000
  0.6666700000000000  0.3333300000000000  0.8333300000000000
  0.3333300000000000  0.6666700000000000  0.1666700000000000
  0.0000000000000000  0.0000000000000000  0.7211900000000000
  0.0000000000000000  0.0000000000000000  0.2788100000000000
  0.6666700000000000  0.3333300000000000  0.0545300000000000
  0.6666600000000000  0.3333400000000000  0.6121300000000000
  0.3333400000000000  0.6666600000000000  0.3878700000000000
  0.3333300000000000  0.6666700000000000  0.9454700000000000
