 Y  S Ga 
 1.0000000000000000
     3.2709999999999999    0.0000000000000000    0.0000000000000000
    -1.6354999999999993    2.8327690957788989    0.0000000000000000
     0.0000000000000000    0.0000000000000000   25.4780000000000015
 Y   S   Ga 
   6   6   3
Direct
  0.9999999999999997  0.9999999999999998  0.5721100000000000
  0.0000000000000000  0.0000000000000000  0.4278900000000000
  0.6666600000000000  0.3333400000000000  0.9054399999999998
  0.6666700000000000  0.3333300000000000  0.7612200000000000
  0.3333300000000000  0.6666700000000000  0.2387800000000000
  0.3333400000000000  0.6666600000000000  0.0945600000000000
  0.0000300000000000  0.9999700000000000  0.7876900000000000
  0.9999700000000000  0.0000300000000000  0.2123100000000000
  0.6666900000000000  0.3333099999999999  0.1210300000000000
  0.6666600000000000  0.3333400000000000  0.5456400000000000
  0.3333400000000000  0.6666600000000000  0.4543600000000000
  0.3333100000000000  0.6666900000000000  0.8789700000000000
  0.0000000000000000  0.0000000000000000  0.0000000000000000
  0.6667000000000000  0.3333000000000000  0.3333300000000000
  0.3332999999999999  0.6667000000000000  0.6666699999999999
