Nb  S  N 
 1.0000000000000000
     3.2709999999999999    0.0000000000000000    0.0000000000000000
    -1.6354999999999993    2.8327690957788989    0.0000000000000000
     0.0000000000000000    0.0000000000000000   25.4780000000000015
 Nb  S   N  
   6   6   3
Direct
  0.9624200000000001  0.0375800000000000  0.6182500000000000
  0.0375800000000000  0.9624200000000001  0.3817499999999999
  0.6667699999999999  0.3332300000000000  0.9684999999999998
  0.6412900000000000  0.3587099999999999  0.6873899999999998
  0.3587099999999999  0.6412900000000000  0.3126099999999999
  0.3332300000000000  0.6667700000000000  0.0315000000000000
  0.1201599999999999  0.8798399999999998  0.7616900000000000
  0.8798400000000000  0.1201600000000000  0.2383100000000000
  0.6663899999999999  0.3336100000000000  0.0778600000000000
  0.6312300000000000  0.3687700000000000  0.5820500000000000
  0.3687699999999999  0.6312299999999998  0.4179500000000000
  0.3336100000000000  0.6663899999999999  0.9221399999999997
  0.0000000000000000  0.0000000000000000  0.0000000000000000
  0.6892300000000000  0.3107699999999999  0.3290300000000000
  0.3107699999999999  0.6892299999999999  0.6709700000000000
