Mn  V  C Te
 1.0000000000000000
     3.3029999999999999    0.0000000000000000    0.0000000000000000
    -1.6514999999999993    2.8604819087000011    0.0000000000000000
     0.0000000000000000    0.0000000000000000   25.8299999999999983
 Mn  V   C   Te
   3   6   3   6
Direct
  0.0000000000000000  0.0000000000000000  0.0000000000000000
  0.9387100000000000  0.0612900000000000  0.3311600000000000
  0.0612900000000000  0.9387100000000000  0.6688400000000000
  0.0006300000000001  0.9993700000000001  0.8661700000000000
  0.9993699999999999  0.0006300000000000  0.1338300000000000
  0.6661400000000000  0.3338600000000000  0.1800400000000000
  0.6656399999999998  0.3343600000000000  0.4775100000000000
  0.3343599999999999  0.6656400000000000  0.5224900000000000
  0.3338600000000000  0.6661400000000000  0.8199600000000000
  0.0000000000000000  0.0000000000000000  0.5000000000000000
  0.6670500000000000  0.3329500000000000  0.8377500000000000
  0.3329499999999999  0.6670500000000000  0.1622500000000000
  0.7298299999999999  0.2701700000000000  0.7127100000000000
  0.2701700000000001  0.7298300000000001  0.2872900000000000
  0.6665000000000000  0.3335000000000000  0.0563000000000000
  0.7974800000000000  0.2025200000000000  0.5932500000000001
  0.2025200000000001  0.7974800000000000  0.4067500000000001
  0.3335000000000000  0.6665000000000000  0.9437000000000000
