Ag Sc  C Se
 1.0000000000000000
     3.3029999999999999    0.0000000000000000    0.0000000000000000
    -1.6514999999999991    2.8604819087000011    0.0000000000000000
     0.0000000000000000    0.0000000000000000   25.8299999999999983
 Ag  Sc  C   Se
   3   6   3   6
Direct
  0.0000000000000000  0.0000000000000000  0.0000000000000000
  0.6666700000000000  0.3333300000000000  0.3333300000000001
  0.3333300000000000  0.6666700000000000  0.6666700000000001
  0.0000000000000000  0.0000000000000000  0.8764200000000000
  0.0000000000000000  0.0000000000000000  0.1235800000000000
  0.6666700000000000  0.3333300000000000  0.2097600000000000
  0.6666700000000000  0.3333300000000000  0.4569100000000000
  0.3333300000000000  0.6666700000000000  0.5430900000000000
  0.3333300000000000  0.6666700000000000  0.7902400000000001
  0.0000000000000000  0.0000000000000000  0.5000000000000000
  0.6666700000000000  0.3333300000000000  0.8333300000000000
  0.3333300000000000  0.6666700000000000  0.1666700000000000
  0.0000000000000000  0.0000000000000000  0.7287700000000000
  0.0000000000000000  0.0000000000000000  0.2712300000000000
  0.6666700000000000  0.3333300000000000  0.0621000000000000
  0.6666700000000000  0.3333300000000000  0.6045700000000001
  0.3333300000000000  0.6666700000000000  0.3954300000000000
  0.3333300000000000  0.6666700000000000  0.9379000000000000
