Nb  S In 
 1.0000000000000000
     3.2709999999999999    0.0000000000000000    0.0000000000000000
    -1.6354999999999993    2.8327690957788989    0.0000000000000000
     0.0000000000000000    0.0000000000000000   25.4780000000000015
 Nb  S   In 
   6   6   3
Direct
  0.9999999999999997  0.9999999999999998  0.5693100000000000
  0.0000000000000000  0.0000000000000000  0.4306900000000000
  0.6666600000000000  0.3333400000000000  0.9026400000000000
  0.6666700000000000  0.3333300000000000  0.7640200000000000
  0.3333300000000000  0.6666700000000000  0.2359800000000000
  0.3333400000000000  0.6666600000000000  0.0973600000000000
  0.9999999999999997  0.9999999999999998  0.7907800000000000
  0.0000000000000000  0.0000000000000000  0.2092199999999999
  0.6666700000000000  0.3333300000000000  0.1241100000000000
  0.6666700000000000  0.3333300000000000  0.5425500000000000
  0.3333300000000000  0.6666700000000000  0.4574500000000000
  0.3333300000000000  0.6666700000000000  0.8758899999999997
  0.0000000000000000  0.0000000000000000  0.0000000000000000
  0.6666800000000001  0.3333199999999999  0.3333300000000000
  0.3333199999999999  0.6666800000000001  0.6666699999999999
