Pd  S In 
 1.0000000000000000
     3.2709999999999999    0.0000000000000000    0.0000000000000000
    -1.6354999999999993    2.8327690957788989    0.0000000000000000
     0.0000000000000000    0.0000000000000000   25.4780000000000015
 Pd  S   In 
   6   6   3
Direct
  0.9999999999999997  0.9999999999999998  0.5611800000000000
  0.0000000000000000  0.0000000000000000  0.4388200000000000
  0.6666600000000000  0.3333400000000000  0.8945100000000000
  0.6666600000000000  0.3333400000000000  0.7721500000000000
  0.3333400000000000  0.6666600000000000  0.2278499999999999
  0.3333400000000000  0.6666600000000000  0.1054900000000000
  0.0000000000000000  0.0000000000000000  0.8249400000000000
  0.9999999999999997  0.9999999999999998  0.1750600000000000
  0.6666700000000000  0.3333300000000000  0.1582700000000000
  0.6666700000000000  0.3333300000000000  0.5083900000000000
  0.3333300000000000  0.6666700000000000  0.4916100000000000
  0.3333300000000000  0.6666700000000000  0.8417300000000000
  0.0000000000000000  0.0000000000000000  0.0000000000000000
  0.6666600000000000  0.3333400000000000  0.3333300000000000
  0.3333400000000000  0.6666600000000000  0.6666699999999999
