Sc Hf  C Se
 1.0000000000000000
     3.3029999999999999    0.0000000000000000    0.0000000000000000
    -1.6514999999999993    2.8604819087000011    0.0000000000000000
     0.0000000000000000    0.0000000000000000   25.8299999999999983
 Sc  Hf  C   Se
   3   6   3   6
Direct
  0.0000000000000000  0.0000000000000000  0.0000000000000000
  0.7076800000000000  0.2923200000000000  0.3122600000000000
  0.2923200000000001  0.7076800000000000  0.6877400000000001
  0.9410499999999999  0.0589500000000000  0.8586600000000000
  0.0589500000000000  0.9410500000000001  0.1413400000000000
  0.7253900000000000  0.2746100000000000  0.1978900000000000
  0.6684500000000000  0.3315500000000000  0.4712800000000000
  0.3315500000000000  0.6684500000000000  0.5287200000000000
  0.2746100000000000  0.7253900000000000  0.8021100000000001
  0.0000000000000000  0.0000000000000000  0.5000000000000000
  0.6096499999999999  0.3903499999999999  0.8291800000000000
  0.3903500000000000  0.6096500000000000  0.1708200000000000
  0.9614700000000000  0.0385300000000000  0.7163400000000000
  0.0385300000000000  0.9614700000000000  0.2836600000000000
  0.6651699999999999  0.3348300000000000  0.0542600000000000
  0.7844899999999999  0.2155100000000000  0.6113499999999999
  0.2155100000000000  0.7844900000000000  0.3886500000000000
  0.3348300000000000  0.6651700000000000  0.9457400000000001
