 Y Te Bi 
 1.0000000000000000
     3.2709999999999999    0.0000000000000000    0.0000000000000000
    -1.6354999999999993    2.8327690957788989    0.0000000000000000
     0.0000000000000000    0.0000000000000000   25.4780000000000015
 Y   Te  Bi 
   6   6   3
Direct
  0.0180300000000000  0.9819700000000000  0.6056400000000000
  0.9819700000000000  0.0180300000000000  0.3943599999999999
  0.6493700000000000  0.3506300000000000  0.9387799999999998
  0.6725600000000000  0.3274400000000000  0.7308799999999999
  0.3274400000000000  0.6725599999999999  0.2691200000000000
  0.3506299999999999  0.6493700000000000  0.0612200000000000
  0.9638800000000000  0.0361200000000000  0.7994100000000000
  0.0361199999999999  0.9638799999999997  0.2005900000000000
  0.6596300000000000  0.3403700000000000  0.1257100000000000
  0.6789800000000000  0.3210200000000000  0.5493200000000000
  0.3210199999999999  0.6789799999999999  0.4506800000000000
  0.3403700000000000  0.6596299999999999  0.8742900000000000
  0.0000000000000000  0.0000000000000000  0.0000000000000000
  0.6711199999999999  0.3288800000000000  0.3224599999999999
  0.3288800000000000  0.6711199999999999  0.6775399999999998
