Ag Ru  N Se 
 1.0000000000000000
     3.3029999999999999    0.0000000000000000    0.0000000000000000
    -1.6514999999999993    2.8604819087000011    0.0000000000000000
     0.0000000000000000    0.0000000000000000   25.8299999999999983
 Ag  Ru  N   Se 
   3   6   3   6
Direct
  0.0000000000000000  0.0000000000000000  0.0000000000000000
  0.6666700000000000  0.3333300000000000  0.3333400000000001
  0.3333300000000000  0.6666700000000000  0.6666600000000001
  0.0000100000000001  0.9999900000000002  0.8754200000000001
  0.9999899999999998  0.0000100000000000  0.1245800000000000
  0.6666800000000001  0.3333200000000000  0.2087500000000000
  0.6666600000000000  0.3333400000000000  0.4579100000000001
  0.3333400000000000  0.6666600000000000  0.5420900000000000
  0.3333200000000000  0.6666800000000001  0.7912500000000000
  0.0000000000000000  0.0000000000000000  0.5000000000000000
  0.6666700000000000  0.3333300000000000  0.8333900000000000
  0.3333300000000000  0.6666700000000000  0.1666100000000000
  0.9999899999999998  0.0000100000000000  0.7486400000000001
  0.0000100000000001  0.9999900000000002  0.2513600000000000
  0.6666600000000000  0.3333400000000000  0.0819500000000000
  0.6666700000000000  0.3333300000000000  0.5847100000000000
  0.3333300000000000  0.6666700000000000  0.4152900000000000
  0.3333400000000000  0.6666600000000000  0.9180500000000000
