 V Re  N  S 
 1.0000000000000000
     3.3029999999999999    0.0000000000000000    0.0000000000000000
    -1.6514999999999991    2.8604819087000011    0.0000000000000000
     0.0000000000000000    0.0000000000000000   25.8299999999999983
 V   Re  N   S  
   3   6   3   6
Direct
  0.0000000000000000  0.0000000000000000  0.0000000000000000
  0.6657399999999999  0.3342600000000000  0.3799000000000000
  0.3342600000000000  0.6657400000000000  0.6201000000000000
  0.0733500000000000  0.9266500000000001  0.9031200000000000
  0.9266500000000000  0.0733500000000000  0.0968800000000000
  0.7730300000000000  0.2269700000000000  0.2048300000000000
  0.6656399999999998  0.3343600000000000  0.4626400000000000
  0.3343599999999999  0.6656400000000000  0.5373599999999999
  0.2269700000000000  0.7730300000000000  0.7951700000000000
  0.0000000000000000  0.0000000000000000  0.5000000000000000
  0.6415400000000000  0.3584600000000000  0.9351200000000000
  0.3584600000000000  0.6415400000000000  0.0648800000000000
  0.8942099999999998  0.1057900000000000  0.7650800000000000
  0.1057900000000000  0.8942099999999999  0.2349200000000000
  0.6383999999999997  0.3616000000000000  0.0467700000000000
  0.6676599999999998  0.3323400000000000  0.5893100000000000
  0.3323399999999999  0.6676600000000000  0.4106900000000000
  0.3616000000000000  0.6384000000000000  0.9532300000000000
