Cu Se Sn 
 1.0000000000000000
     3.2690000000000001    0.0000000000000000    0.0000000000000000
    -1.6344999999999994    2.8310370449713305    0.0000000000000000
     0.0000000000000000    0.0000000000000000    8.5470000000000006
 Cu  Se  Sn 
   2   2   1
Direct
  0.7269099999999999  0.3634500000000000  0.7572900000000000
  0.2730899999999999  0.6365500000000001  0.2427100000000000
  0.6201899999999998  0.3100900000000000  0.4480300000000000
  0.3798099999999999  0.6899100000000000  0.5519700000000000
  0.0000000000000000  0.0000000000000000  0.0000000000000000
