Ti Se Ge 
 1.0000000000000000
     3.2690000000000001    0.0000000000000000    0.0000000000000000
    -1.6344999999999994    2.8310370449713305    0.0000000000000000
     0.0000000000000000    0.0000000000000000    8.5470000000000006
 Ti  Se  Ge 
   2   2   1
Direct
  0.6661999999999998  0.3331000000000001  0.7428200000000000
  0.3338000000000000  0.6669000000000000  0.2571800000000000
  0.6669599999999998  0.3334800000000000  0.3394500000000000
  0.3330400000000000  0.6665200000000000  0.6605500000000000
  0.0000000000000000  0.0000000000000000  0.0000000000000000
