Co Ru  C  S
 1.0000000000000000
     3.3029999999999999    0.0000000000000000    0.0000000000000000
    -1.6514999999999991    2.8604819087000011    0.0000000000000000
     0.0000000000000000    0.0000000000000000   25.8299999999999983
 Co  Ru  C   S
   3   6   3   6
Direct
  0.0000000000000000  0.0000000000000000  0.0000000000000000
  0.6666700000000000  0.3333300000000000  0.3333300000000001
  0.3333300000000000  0.6666700000000000  0.6666700000000001
  0.0000000000000000  0.0000000000000000  0.8693300000000000
  0.0000000000000000  0.0000000000000000  0.1306700000000000
  0.6666600000000000  0.3333400000000000  0.2026700000000000
  0.6666700000000000  0.3333300000000000  0.4640000000000000
  0.3333300000000000  0.6666700000000000  0.5360000000000000
  0.3333400000000000  0.6666600000000000  0.7973300000000000
  0.0000000000000000  0.0000000000000000  0.5000000000000000
  0.6666600000000000  0.3333400000000000  0.8333300000000000
  0.3333400000000000  0.6666600000000000  0.1666700000000000
  0.0000200000000001  0.9999800000000001  0.7169200000000000
  0.9999800000000000  0.0000200000000000  0.2830800000000000
  0.6666800000000001  0.3333200000000000  0.0502600000000000
  0.6666499999999999  0.3333500000000000  0.6164100000000000
  0.3333499999999999  0.6666500000000000  0.3835900000000000
  0.3333200000000000  0.6666800000000001  0.9497400000000001
