Mo Te Ge 
 1.0000000000000000
     3.2709999999999999    0.0000000000000000    0.0000000000000000
    -1.6354999999999993    2.8327690957788989    0.0000000000000000
     0.0000000000000000    0.0000000000000000   25.4780000000000015
 Mo  Te  Ge 
   6   6   3
Direct
  0.9939800000000000  0.0060200000000000  0.6228300000000000
  0.0060200000000000  0.9939800000000000  0.3771700000000000
  0.6612000000000000  0.3387999999999999  0.9562000000000000
  0.6716000000000000  0.3284000000000000  0.7104700000000000
  0.3284000000000000  0.6715999999999999  0.2895300000000000
  0.3387999999999999  0.6612000000000000  0.0438000000000000
  0.9799800000000000  0.0200200000000000  0.7723100000000001
  0.0200199999999999  0.9799799999999997  0.2276900000000000
  0.6472400000000000  0.3527600000000000  0.1056100000000000
  0.6855599999999999  0.3144400000000000  0.5610000000000001
  0.3144400000000000  0.6855599999999999  0.4390000000000000
  0.3527600000000000  0.6472399999999999  0.8943899999999999
  0.0000000000000000  0.0000000000000000  0.0000000000000000
  0.6671899999999998  0.3328100000000000  0.3333300000000000
  0.3328099999999999  0.6671899999999998  0.6666699999999999
