Fe Re  C Te
 1.0000000000000000
     3.3029999999999999    0.0000000000000000    0.0000000000000000
    -1.6514999999999993    2.8604819087000011    0.0000000000000000
     0.0000000000000000    0.0000000000000000   25.8299999999999983
 Fe  Re  C   Te
   3   6   3   6
Direct
  0.0000000000000000  0.0000000000000000  0.0000000000000000
  0.7451500000000000  0.2548500000000000  0.3323300000000000
  0.2548500000000001  0.7451500000000000  0.6676700000000000
  0.9865600000000000  0.0134400000000000  0.8958800000000000
  0.0134400000000000  0.9865600000000000  0.1041200000000000
  0.5247900000000000  0.4752100000000001  0.1895200000000000
  0.7282900000000000  0.2717100000000000  0.4669100000000000
  0.2717100000000000  0.7282900000000000  0.5330900000000000
  0.4752100000000000  0.5247900000000000  0.8104800000000000
  0.0000000000000000  0.0000000000000000  0.5000000000000000
  0.7988800000000001  0.2011200000000000  0.8239900000000002
  0.2011199999999999  0.7988800000000000  0.1760100000000000
  0.9688200000000000  0.0311800000000000  0.7375200000000000
  0.0311800000000000  0.9688200000000000  0.2624800000000000
  0.6758899999999999  0.3241100000000000  0.0570300000000000
  0.5853100000000000  0.4146900000000000  0.6151000000000000
  0.4146900000000000  0.5853100000000000  0.3849000000000000
  0.3241100000000000  0.6758900000000000  0.9429700000000000
