Ru Te In 
 1.0000000000000000
     3.2690000000000001    0.0000000000000000    0.0000000000000000
    -1.6344999999999994    2.8310370449713305    0.0000000000000000
     0.0000000000000000    0.0000000000000000    8.5470000000000006
 Ru  Te  In 
   2   2   1
Direct
  0.6667600000000000  0.3333800000000000  0.7843900000000000
  0.3332399999999999  0.6666200000000000  0.2156100000000000
  0.6665900000000000  0.3333000000000000  0.3539400000000000
  0.3334100000000000  0.6667000000000000  0.6460600000000000
  0.0000000000000000  0.0000000000000000  0.0000000000000000
