Zn  S Sb 
 1.0000000000000000
     3.2690000000000001    0.0000000000000000    0.0000000000000000
    -1.6344999999999994    2.8310370449713305    0.0000000000000000
     0.0000000000000000    0.0000000000000000    8.5470000000000006
 Zn  S   Sb 
   2   2   1
Direct
  0.9994299999999998  0.4997200000000001  0.7316300000000000
  0.0005700000000001  0.5002800000000001  0.2683700000000000
  0.6393000000000000  0.3196500000000000  0.4999300000000000
  0.3607000000000001  0.6803500000000001  0.5000700000000000
  0.0000000000000000  0.0000000000000000  0.0000000000000000
