Nb Te As 
 1.0000000000000000
     3.2709999999999999    0.0000000000000000    0.0000000000000000
    -1.6354999999999993    2.8327690957788989    0.0000000000000000
     0.0000000000000000    0.0000000000000000   25.4780000000000015
 Nb  Te  As 
   6   6   3
Direct
  0.9999999999999997  0.9999999999999998  0.6265900000000000
  0.0000000000000000  0.0000000000000000  0.3734100000000000
  0.6666700000000000  0.3333300000000000  0.9599299999999998
  0.6666700000000000  0.3333300000000000  0.7067400000000000
  0.3333300000000000  0.6666700000000000  0.2932600000000000
  0.3333300000000000  0.6666700000000000  0.0400700000000000
  0.0000000000000000  0.0000000000000000  0.7739499999999998
  0.9999999999999997  0.9999999999999998  0.2260500000000000
  0.6666700000000000  0.3333300000000000  0.1072900000000000
  0.6666700000000000  0.3333300000000000  0.5593800000000000
  0.3333300000000000  0.6666700000000000  0.4406199999999999
  0.3333300000000000  0.6666700000000000  0.8927100000000000
  0.0000000000000000  0.0000000000000000  0.0000000000000000
  0.6666700000000000  0.3333300000000000  0.3333300000000000
  0.3333300000000000  0.6666700000000000  0.6666699999999999
