Os Ge Se 
 1.0000000000000000
     3.3435999999999999    0.0000000000000000    0.0000000000000000
    -1.6717999999999993    2.8956425400936490    0.0000000000000000
     0.0000000000000000    0.0000000000000000   11.5808999999999997
 Os  Ge  Se 
   4   2   2
Direct
  0.2923100000000000  0.7076899999999999  0.3685100000000000
  0.7076900000000000  0.2923100000000000  0.6314900000000000
  0.7076900000000000  0.2923100000000000  0.8685100000000000
  0.2923100000000000  0.7076899999999999  0.1314900000000000
  0.0000000000000000  0.0000000000000000  0.0000000000000000
  0.0000000000000000  0.0000000000000000  0.5000000000000000
  0.2618399999999999  0.7381600000000000  0.7500000000000000
  0.7381600000000000  0.2618400000000000  0.2500000000000000
