Zn Pt  C  S
 1.0000000000000000
     3.3029999999999999    0.0000000000000000    0.0000000000000000
    -1.6514999999999991    2.8604819087000011    0.0000000000000000
     0.0000000000000000    0.0000000000000000   25.8299999999999983
 Zn  Pt  C   S
   3   6   3   6
Direct
  0.0000000000000000  0.0000000000000000  0.0000000000000000
  0.6666700000000000  0.3333300000000000  0.3333300000000001
  0.3333300000000000  0.6666700000000000  0.6666700000000001
  0.0000000000000000  0.0000000000000000  0.8760800000000000
  0.0000000000000000  0.0000000000000000  0.1239200000000000
  0.6666700000000000  0.3333300000000000  0.2094100000000000
  0.6666700000000000  0.3333300000000000  0.4572600000000000
  0.3333300000000000  0.6666700000000000  0.5427400000000000
  0.3333300000000000  0.6666700000000000  0.7905900000000000
  0.0000000000000000  0.0000000000000000  0.5000000000000000
  0.6666700000000000  0.3333300000000000  0.8333300000000000
  0.3333300000000000  0.6666700000000000  0.1666700000000000
  0.0000000000000000  0.0000000000000000  0.7248500000000000
  0.0000000000000000  0.0000000000000000  0.2751500000000000
  0.6666700000000000  0.3333300000000000  0.0581800000000000
  0.6666700000000000  0.3333300000000000  0.6084900000000000
  0.3333300000000000  0.6666700000000000  0.3915100000000000
  0.3333300000000000  0.6666700000000000  0.9418200000000000
