Ni Re  C  S
 1.0000000000000000
     3.3029999999999999    0.0000000000000000    0.0000000000000000
    -1.6514999999999991    2.8604819087000011    0.0000000000000000
     0.0000000000000000    0.0000000000000000   25.8299999999999983
 Ni  Re  C   S
   3   6   3   6
Direct
  0.0000000000000000  0.0000000000000000  0.0000000000000000
  0.6666700000000000  0.3333300000000000  0.3333300000000001
  0.3333300000000000  0.6666700000000000  0.6666700000000001
  0.0000000000000000  0.0000000000000000  0.8705700000000001
  0.0000000000000000  0.0000000000000000  0.1294300000000000
  0.6666700000000000  0.3333300000000000  0.2038900000000000
  0.6666700000000000  0.3333300000000000  0.4627700000000000
  0.3333300000000000  0.6666700000000000  0.5372300000000000
  0.3333300000000000  0.6666700000000000  0.7961100000000000
  0.0000000000000000  0.0000000000000000  0.5000000000000000
  0.6666700000000000  0.3333300000000000  0.8333300000000000
  0.3333300000000000  0.6666700000000000  0.1666700000000000
  0.0000000000000000  0.0000000000000000  0.7262000000000000
  0.0000000000000000  0.0000000000000000  0.2738000000000000
  0.6666700000000000  0.3333300000000000  0.0595300000000000
  0.6666700000000000  0.3333300000000000  0.6071400000000000
  0.3333300000000000  0.6666700000000000  0.3928600000000000
  0.3333300000000000  0.6666700000000000  0.9404700000000001
