Mg Mo  C Se
 1.0000000000000000
     3.3029999999999999    0.0000000000000000    0.0000000000000000
    -1.6514999999999993    2.8604819087000011    0.0000000000000000
     0.0000000000000000    0.0000000000000000   25.8299999999999983
 Mg  Mo  C   Se
   3   6   3   6
Direct
  0.0000000000000000  0.0000000000000000  0.0000000000000000
  0.6668299999999998  0.3331700000000000  0.3369100000000000
  0.3331699999999999  0.6668300000000000  0.6630900000000000
  0.0000800000000000  0.9999200000000000  0.8554500000000000
  0.9999200000000000  0.0000800000000000  0.1445500000000000
  0.6665300000000000  0.3334700000000000  0.2088700000000000
  0.6666800000000001  0.3333200000000000  0.4729300000000000
  0.3333200000000000  0.6666800000000001  0.5270700000000000
  0.3334700000000000  0.6665300000000000  0.7911300000000002
  0.0000000000000000  0.0000000000000000  0.5000000000000000
  0.6667799999999998  0.3332200000000000  0.8057500000000000
  0.3332200000000000  0.6667800000000000  0.1942500000000000
  0.9997700000000000  0.0002300000000000  0.7197500000000001
  0.0002300000000000  0.9997700000000000  0.2802500000000000
  0.6665800000000000  0.3334200000000000  0.0984000000000000
  0.6666199999999999  0.3333800000000000  0.5843400000000000
  0.3333800000000000  0.6666200000000000  0.4156600000000000
  0.3334200000000000  0.6665800000000000  0.9016000000000000
