Na Hf Se  C 
 1.0000000000000000
     3.3121000000000000    0.0000000000000000    0.0000000000000000
    -1.6560499999999991    2.8683627398744393    0.0000000000000000
     0.0000000000000000    0.0000000000000000    9.0113000000000003
 Na  Hf  Se  C  
   2   2   2   1
Direct
  0.6666600000000003  0.3333300000000000  0.5588800000000000
  0.3333400000000000  0.6666700000000000  0.4411200000000000
  0.6666600000000003  0.3333300000000000  0.8856300000000000
  0.3333400000000000  0.6666700000000000  0.1143700000000000
  0.6666700000000001  0.3333400000000000  0.2892500000000000
  0.3333300000000001  0.6666600000000000  0.7107500000000000
  0.0000000000000000  0.0000000000000000  0.0000000000000000
