Na Zn  N Se 
 1.0000000000000000
     3.3029999999999999    0.0000000000000000    0.0000000000000000
    -1.6514999999999991    2.8604819087000011    0.0000000000000000
     0.0000000000000000    0.0000000000000000   25.8299999999999983
 Na  Zn  N   Se 
   3   6   3   6
Direct
  0.0000000000000000  0.0000000000000000  0.0000000000000000
  0.6666700000000000  0.3333300000000000  0.3333300000000001
  0.3333300000000000  0.6666700000000000  0.6666700000000001
  0.0000000000000000  0.0000000000000000  0.8755400000000000
  0.0000000000000000  0.0000000000000000  0.1244600000000000
  0.6666800000000001  0.3333200000000000  0.2088300000000000
  0.6666600000000000  0.3333400000000000  0.4578200000000001
  0.3333400000000000  0.6666600000000000  0.5421800000000000
  0.3333200000000000  0.6666800000000001  0.7911700000000000
  0.0000000000000000  0.0000000000000000  0.5000000000000000
  0.6666800000000001  0.3333200000000000  0.8334700000000002
  0.3333200000000000  0.6666800000000001  0.1665300000000000
  0.9999899999999998  0.0000100000000000  0.7237900000000000
  0.0000100000000001  0.9999900000000002  0.2762100000000000
  0.6666600000000000  0.3333400000000000  0.0571400000000000
  0.6666700000000000  0.3333300000000000  0.6095300000000000
  0.3333300000000000  0.6666700000000000  0.3904700000000000
  0.3333400000000000  0.6666600000000000  0.9428600000000000
