Pt Se Si 
 1.0000000000000000
     3.2709999999999999    0.0000000000000000    0.0000000000000000
    -1.6354999999999993    2.8327690957788989    0.0000000000000000
     0.0000000000000000    0.0000000000000000   25.4780000000000015
 Pt  Se  Si 
   6   6   3
Direct
  0.9999999999999997  0.9999999999999998  0.6142000000000000
  0.0000000000000000  0.0000000000000000  0.3858000000000000
  0.6666700000000000  0.3333300000000000  0.9475400000000000
  0.6666700000000000  0.3333300000000000  0.7191399999999999
  0.3333300000000000  0.6666700000000000  0.2808600000000000
  0.3333300000000000  0.6666700000000000  0.0524600000000000
  0.9999999999999997  0.9999999999999998  0.7917500000000000
  0.0000000000000000  0.0000000000000000  0.2082500000000000
  0.6666600000000000  0.3333400000000000  0.1250900000000000
  0.6666700000000000  0.3333300000000000  0.5415800000000000
  0.3333300000000000  0.6666700000000000  0.4584200000000000
  0.3333400000000000  0.6666600000000000  0.8749100000000000
  0.0000000000000000  0.0000000000000000  0.0000000000000000
  0.6666700000000000  0.3333300000000000  0.3333300000000000
  0.3333300000000000  0.6666700000000000  0.6666699999999999
