Ca Zn  C Se
 1.0000000000000000
     3.3029999999999999    0.0000000000000000    0.0000000000000000
    -1.6514999999999993    2.8604819087000011    0.0000000000000000
     0.0000000000000000    0.0000000000000000   25.8299999999999983
 Ca  Zn  C   Se
   3   6   3   6
Direct
  0.0000000000000000  0.0000000000000000  0.0000000000000000
  0.6848100000000000  0.3151900000000000  0.3104900000000000
  0.3151900000000000  0.6848100000000000  0.6895100000000000
  0.0409300000000000  0.9590700000000000  0.8802400000000001
  0.9590700000000000  0.0409300000000000  0.1197600000000000
  0.7106399999999999  0.2893600000000000  0.2053600000000000
  0.6957600000000000  0.3042400000000000  0.4524300000000001
  0.3042400000000000  0.6957600000000000  0.5475700000000000
  0.2893600000000001  0.7106400000000002  0.7946400000000000
  0.0000000000000000  0.0000000000000000  0.5000000000000000
  0.7689299999999999  0.2310700000000000  0.8305500000000001
  0.2310700000000001  0.7689300000000001  0.1694500000000000
  0.9833399999999999  0.0166600000000000  0.7157800000000001
  0.0166600000000000  0.9833400000000000  0.2842200000000000
  0.6664099999999999  0.3335900000000000  0.0485500000000000
  0.7838300000000000  0.2161700000000000  0.6147600000000000
  0.2161700000000001  0.7838300000000000  0.3852400000000001
  0.3335900000000000  0.6664099999999999  0.9514500000000000
