Ru Te Sn 
 1.0000000000000000
     3.2690000000000001    0.0000000000000000    0.0000000000000000
    -1.6344999999999994    2.8310370449713305    0.0000000000000000
     0.0000000000000000    0.0000000000000000    8.5470000000000006
 Ru  Te  Sn 
   2   2   1
Direct
  0.6667800000000000  0.3333900000000001  0.8013899999999999
  0.3332200000000001  0.6666100000000001  0.1986100000000000
  0.6666099999999999  0.3333000000000000  0.3447100000000000
  0.3333900000000000  0.6667000000000000  0.6552900000000000
  0.0000000000000000  0.0000000000000000  0.0000000000000000
