Re Te Sn 
 1.0000000000000000
     3.2709999999999999    0.0000000000000000    0.0000000000000000
    -1.6354999999999993    2.8327690957788989    0.0000000000000000
     0.0000000000000000    0.0000000000000000   25.4780000000000015
 Re  Te  Sn 
   6   6   3
Direct
  0.0000000000000000  0.0000000000000000  0.5955400000000000
  0.9999999999999997  0.9999999999999998  0.4044600000000000
  0.6666700000000000  0.3333300000000000  0.9288800000000000
  0.6666700000000000  0.3333300000000000  0.7377899999999999
  0.3333300000000000  0.6666700000000000  0.2622100000000000
  0.3333300000000000  0.6666700000000000  0.0711200000000000
  0.9999999999999997  0.9999999999999998  0.7839299999999999
  0.0000000000000000  0.0000000000000000  0.2160700000000000
  0.6666700000000000  0.3333300000000000  0.1172600000000000
  0.6666600000000000  0.3333400000000000  0.5494100000000000
  0.3333400000000000  0.6666600000000000  0.4505900000000000
  0.3333300000000000  0.6666700000000000  0.8827400000000000
  0.0000000000000000  0.0000000000000000  0.0000000000000000
  0.6666600000000000  0.3333400000000000  0.3333300000000000
  0.3333400000000000  0.6666600000000000  0.6666699999999999
