Ag Se Bi 
 1.0000000000000000
     3.2690000000000001    0.0000000000000000    0.0000000000000000
    -1.6344999999999994    2.8310370449713305    0.0000000000000000
     0.0000000000000000    0.0000000000000000    8.5470000000000006
 Ag  Se  Bi 
   2   2   1
Direct
  0.6955899999999998  0.3477900000000000  0.7655100000000000
  0.3044100000000000  0.6522100000000000  0.2344900000000000
  0.6244600000000000  0.3122300000000001  0.4467800000000000
  0.3755400000000000  0.6877700000000000  0.5532200000000000
  0.0000000000000000  0.0000000000000000  0.0000000000000000
