Li  V  C  S
 1.0000000000000000
     3.3029999999999999    0.0000000000000000    0.0000000000000000
    -1.6514999999999991    2.8604819087000011    0.0000000000000000
     0.0000000000000000    0.0000000000000000   25.8299999999999983
 Li  V   C   S
   3   6   3   6
Direct
  0.0000000000000000  0.0000000000000000  0.0000000000000000
  0.6666700000000000  0.3333300000000000  0.3333300000000001
  0.3333300000000000  0.6666700000000000  0.6666700000000001
  0.0000000000000000  0.0000000000000000  0.8722000000000000
  0.0000000000000000  0.0000000000000000  0.1278000000000000
  0.6666700000000000  0.3333300000000000  0.2055300000000000
  0.6666700000000000  0.3333300000000000  0.4611300000000000
  0.3333300000000000  0.6666700000000000  0.5388700000000000
  0.3333300000000000  0.6666700000000000  0.7944700000000000
  0.0000000000000000  0.0000000000000000  0.5000000000000000
  0.6666700000000000  0.3333300000000000  0.8333300000000000
  0.3333300000000000  0.6666700000000000  0.1666700000000000
  0.0000000000000000  0.0000000000000000  0.7346500000000000
  0.0000000000000000  0.0000000000000000  0.2653500000000000
  0.6666700000000000  0.3333300000000000  0.0679900000000000
  0.6666700000000000  0.3333300000000000  0.5986800000000000
  0.3333300000000000  0.6666700000000000  0.4013200000000000
  0.3333300000000000  0.6666700000000000  0.9320100000000000
