Sc  S Al 
 1.0000000000000000
     3.2709999999999999    0.0000000000000000    0.0000000000000000
    -1.6354999999999993    2.8327690957788989    0.0000000000000000
     0.0000000000000000    0.0000000000000000   25.4780000000000015
 Sc  S   Al 
   6   6   3
Direct
  0.9999999999999997  0.9999999999999998  0.5718599999999999
  0.0000000000000000  0.0000000000000000  0.4281400000000000
  0.6666700000000000  0.3333300000000000  0.9051900000000001
  0.6666700000000000  0.3333300000000000  0.7614799999999998
  0.3333300000000000  0.6666700000000000  0.2385200000000000
  0.3333300000000000  0.6666700000000000  0.0948100000000000
  0.0000100000000000  0.9999899999999999  0.7838400000000000
  0.9999900000000000  0.0000100000000000  0.2161600000000000
  0.6666700000000000  0.3333300000000000  0.1171700000000000
  0.6666600000000000  0.3333400000000000  0.5494900000000000
  0.3333400000000000  0.6666600000000000  0.4505100000000000
  0.3333300000000000  0.6666700000000000  0.8828299999999998
  0.0000000000000000  0.0000000000000000  0.0000000000000000
  0.6666700000000000  0.3333300000000000  0.3333300000000000
  0.3333300000000000  0.6666700000000000  0.6666699999999999
