Ta  S Si 
 1.0000000000000000
     3.2690000000000001    0.0000000000000000    0.0000000000000000
    -1.6344999999999994    2.8310370449713305    0.0000000000000000
     0.0000000000000000    0.0000000000000000    8.5470000000000006
 Ta  S   Si 
   2   2   1
Direct
  0.6666999999999997  0.3333500000000000  0.9008900000000000
  0.3333000000000000  0.6666500000000000  0.0991100000000000
  0.6660400000000000  0.3330200000000000  0.3245900000000000
  0.3339599999999999  0.6669800000000000  0.6754100000000000
  0.0000000000000000  0.0000000000000000  0.0000000000000000
