Sc Pd  C Te
 1.0000000000000000
     3.3029999999999999    0.0000000000000000    0.0000000000000000
    -1.6514999999999993    2.8604819087000011    0.0000000000000000
     0.0000000000000000    0.0000000000000000   25.8299999999999983
 Sc  Pd  C   Te
   3   6   3   6
Direct
  0.0000000000000000  0.0000000000000000  0.0000000000000000
  0.6667500000000000  0.3332500000000000  0.3333300000000001
  0.3332500000000000  0.6667500000000000  0.6666700000000001
  0.0000000000000000  0.0000000000000000  0.8725100000000000
  0.0000000000000000  0.0000000000000000  0.1274900000000000
  0.6666600000000000  0.3333400000000000  0.2058500000000000
  0.6666600000000000  0.3333400000000000  0.4608200000000000
  0.3333400000000000  0.6666600000000000  0.5391800000000000
  0.3333400000000000  0.6666600000000000  0.7941500000000000
  0.0000000000000000  0.0000000000000000  0.5000000000000000
  0.6666600000000000  0.3333400000000000  0.8333300000000000
  0.3333400000000000  0.6666600000000000  0.1666700000000000
  0.0000400000000001  0.9999600000000000  0.7292200000000002
  0.9999600000000000  0.0000400000000000  0.2707800000000000
  0.6666600000000000  0.3333400000000000  0.0625500000000000
  0.6666999999999998  0.3333000000000000  0.6041100000000000
  0.3332999999999999  0.6667000000000000  0.3958900000000001
  0.3333400000000000  0.6666600000000000  0.9374500000000000
