Li Ru  C  S
 1.0000000000000000
     3.3029999999999999    0.0000000000000000    0.0000000000000000
    -1.6514999999999991    2.8604819087000011    0.0000000000000000
     0.0000000000000000    0.0000000000000000   25.8299999999999983
 Li  Ru  C   S
   3   6   3   6
Direct
  0.0000000000000000  0.0000000000000000  0.0000000000000000
  0.6666700000000000  0.3333300000000000  0.3333300000000001
  0.3333300000000000  0.6666700000000000  0.6666700000000001
  0.0000000000000000  0.0000000000000000  0.8695600000000000
  0.0000000000000000  0.0000000000000000  0.1304400000000000
  0.6666700000000000  0.3333300000000000  0.2028800000000000
  0.6666700000000000  0.3333300000000000  0.4637800000000000
  0.3333300000000000  0.6666700000000000  0.5362200000000000
  0.3333300000000000  0.6666700000000000  0.7971200000000001
  0.0000000000000000  0.0000000000000000  0.5000000000000000
  0.6666700000000000  0.3333300000000000  0.8333300000000000
  0.3333300000000000  0.6666700000000000  0.1666700000000000
  0.0000000000000000  0.0000000000000000  0.7354000000000001
  0.0000000000000000  0.0000000000000000  0.2646000000000000
  0.6666700000000000  0.3333300000000000  0.0687400000000000
  0.6666600000000000  0.3333400000000000  0.5979300000000000
  0.3333400000000000  0.6666600000000000  0.4020700000000000
  0.3333300000000000  0.6666700000000000  0.9312600000000000
