Os  S As 
 1.0000000000000000
     3.2690000000000001    0.0000000000000000    0.0000000000000000
    -1.6344999999999994    2.8310370449713305    0.0000000000000000
     0.0000000000000000    0.0000000000000000    8.5470000000000006
 Os  S   As 
   2   2   1
Direct
  0.5994299999999999  0.2997100000000000  0.8480600000000000
  0.4005700000000000  0.7002900000000001  0.1519400000000000
  0.4408699999999999  0.2204300000000000  0.3202900000000000
  0.5591300000000000  0.7795700000000002  0.6797099999999999
  0.0000000000000000  0.0000000000000000  0.0000000000000000
