 W Se Bi 
 1.0000000000000000
     3.2690000000000001    0.0000000000000000    0.0000000000000000
    -1.6344999999999994    2.8310370449713305    0.0000000000000000
     0.0000000000000000    0.0000000000000000    8.5470000000000006
 W   Se  Bi 
   2   2   1
Direct
  0.5824299999999999  0.2912100000000000  0.7515600000000000
  0.4175700000000001  0.7087900000000003  0.2484400000000000
  0.7418400000000001  0.3709200000000001  0.3478500000000000
  0.2581600000000000  0.6290800000000000  0.6521500000000000
  0.0000000000000000  0.0000000000000000  0.0000000000000000
