Au Te Sn 
 1.0000000000000000
     3.2690000000000001    0.0000000000000000    0.0000000000000000
    -1.6344999999999994    2.8310370449713305    0.0000000000000000
     0.0000000000000000    0.0000000000000000    8.5470000000000006
 Au  Te  Sn 
   2   2   1
Direct
  0.6666999999999997  0.3333500000000000  0.7986900000000000
  0.3333000000000000  0.6666500000000000  0.2013100000000000
  0.6665600000000000  0.3332800000000001  0.4071400000000000
  0.3334400000000000  0.6667200000000001  0.5928600000000001
  0.0000000000000000  0.0000000000000000  0.0000000000000000
