 V Os Se  N 
 1.0000000000000000
     3.3121000000000000    0.0000000000000000    0.0000000000000000
    -1.6560499999999994    2.8683627398744393    0.0000000000000000
     0.0000000000000000    0.0000000000000000    9.0113000000000003
 V   Os  Se  N  
   2   2   2   1
Direct
  0.6666500000000000  0.3333200000000000  0.5804400000000000
  0.3333500000000000  0.6666800000000001  0.4195600000000000
  0.6666500000000000  0.3333300000000000  0.8964000000000000
  0.3333500000000000  0.6666700000000000  0.1036000000000000
  0.6666900000000002  0.3333400000000000  0.2715700000000000
  0.3333100000000000  0.6666600000000000  0.7284300000000000
  0.0000000000000000  0.0000000000000000  0.0000000000000000
