Cu  S  P 
 1.0000000000000000
     3.2690000000000001    0.0000000000000000    0.0000000000000000
    -1.6344999999999994    2.8310370449713305    0.0000000000000000
     0.0000000000000000    0.0000000000000000    8.5470000000000006
 Cu  S   P  
   2   2   1
Direct
  0.6666999999999997  0.3333500000000000  0.8190300000000000
  0.3333000000000000  0.6666500000000000  0.1809700000000000
  0.6666099999999999  0.3333100000000000  0.3663400000000000
  0.3333900000000001  0.6666900000000001  0.6336600000000000
  0.0000000000000000  0.0000000000000000  0.0000000000000000
