Fe Pt  C Se
 1.0000000000000000
     3.3029999999999999    0.0000000000000000    0.0000000000000000
    -1.6514999999999993    2.8604819087000011    0.0000000000000000
     0.0000000000000000    0.0000000000000000   25.8299999999999983
 Fe  Pt  C   Se
   3   6   3   6
Direct
  0.0000000000000000  0.0000000000000000  0.0000000000000000
  0.8057600000000000  0.1942400000000000  0.3328500000000000
  0.1942400000000000  0.8057600000000000  0.6671500000000000
  0.0263200000000000  0.9736800000000001  0.8886700000000001
  0.9736799999999999  0.0263200000000000  0.1113300000000000
  0.7353999999999998  0.2646000000000000  0.1967400000000000
  0.6846000000000000  0.3154000000000000  0.4566300000000000
  0.3154000000000000  0.6846000000000000  0.5433700000000000
  0.2646000000000000  0.7354000000000001  0.8032600000000000
  0.0000000000000000  0.0000000000000000  0.5000000000000000
  0.7595799999999999  0.2404200000000000  0.8424500000000000
  0.2404200000000000  0.7595800000000000  0.1575500000000000
  0.8552199999999998  0.1447800000000000  0.7062900000000001
  0.1447800000000000  0.8552200000000000  0.2937100000000000
  0.6598099999999999  0.3401900000000000  0.0494300000000000
  0.6265099999999999  0.3734900000000000  0.6025199999999999
  0.3734900000000000  0.6265100000000000  0.3974800000000001
  0.3401900000000000  0.6598100000000000  0.9505700000000001
