Mn  V  C Se
 1.0000000000000000
     3.3029999999999999    0.0000000000000000    0.0000000000000000
    -1.6514999999999991    2.8604819087000011    0.0000000000000000
     0.0000000000000000    0.0000000000000000   25.8299999999999983
 Mn  V   C   Se
   3   6   3   6
Direct
  0.0000000000000000  0.0000000000000000  0.0000000000000000
  0.6666700000000000  0.3333300000000000  0.3333300000000001
  0.3333300000000000  0.6666700000000000  0.6666700000000001
  0.0000000000000000  0.0000000000000000  0.8697000000000001
  0.0000000000000000  0.0000000000000000  0.1303000000000000
  0.6666600000000000  0.3333400000000000  0.2030300000000000
  0.6666700000000000  0.3333300000000000  0.4636300000000000
  0.3333300000000000  0.6666700000000000  0.5363700000000000
  0.3333400000000000  0.6666600000000000  0.7969700000000000
  0.0000000000000000  0.0000000000000000  0.5000000000000000
  0.6666700000000000  0.3333300000000000  0.8333400000000000
  0.3333300000000000  0.6666700000000000  0.1666600000000000
  0.0000100000000001  0.9999900000000002  0.7254200000000000
  0.9999899999999998  0.0000100000000000  0.2745800000000000
  0.6666700000000000  0.3333300000000000  0.0587600000000000
  0.6666600000000000  0.3333400000000000  0.6079100000000000
  0.3333400000000000  0.6666600000000000  0.3920900000000000
  0.3333300000000000  0.6666700000000000  0.9412400000000000
