Cr  Y  N Se 
 1.0000000000000000
     3.3029999999999999    0.0000000000000000    0.0000000000000000
    -1.6514999999999993    2.8604819087000011    0.0000000000000000
     0.0000000000000000    0.0000000000000000   25.8299999999999983
 Cr  Y   N   Se 
   3   6   3   6
Direct
  0.0000000000000000  0.0000000000000000  0.0000000000000000
  0.4280300000000000  0.5719700000000000  0.3659000000000000
  0.5719700000000000  0.4280300000000000  0.6341000000000000
  0.0003200000000000  0.9996800000000001  0.9034100000000002
  0.9996799999999999  0.0003200000000000  0.0965900000000000
  0.6533800000000000  0.3466200000000000  0.2028700000000000
  0.6695700000000000  0.3304300000000000  0.4709700000000001
  0.3304300000000000  0.6695700000000000  0.5290300000000000
  0.3466200000000000  0.6533800000000000  0.7971300000000000
  0.0000000000000000  0.0000000000000000  0.5000000000000000
  0.6800599999999999  0.3199400000000000  0.8142600000000000
  0.3199400000000000  0.6800600000000000  0.1857400000000000
  0.0817200000000001  0.9182800000000001  0.6992200000000000
  0.9182800000000000  0.0817200000000000  0.3007800000000000
  0.6662200000000000  0.3337800000000000  0.0513000000000000
  0.8963800000000000  0.1036200000000000  0.6057900000000001
  0.1036200000000001  0.8963800000000001  0.3942100000000001
  0.3337800000000000  0.6662200000000000  0.9487000000000001
