Sc Cr  C  S
 1.0000000000000000
     3.3029999999999999    0.0000000000000000    0.0000000000000000
    -1.6514999999999991    2.8604819087000011    0.0000000000000000
     0.0000000000000000    0.0000000000000000   25.8299999999999983
 Sc  Cr  C   S
   3   6   3   6
Direct
  0.0000000000000000  0.0000000000000000  0.0000000000000000
  0.6666700000000000  0.3333300000000000  0.3333300000000001
  0.3333300000000000  0.6666700000000000  0.6666700000000001
  0.0000000000000000  0.0000000000000000  0.8682000000000000
  0.0000000000000000  0.0000000000000000  0.1318000000000000
  0.6666700000000000  0.3333300000000000  0.2015300000000000
  0.6666700000000000  0.3333300000000000  0.4651300000000000
  0.3333300000000000  0.6666700000000000  0.5348700000000000
  0.3333300000000000  0.6666700000000000  0.7984700000000000
  0.0000000000000000  0.0000000000000000  0.5000000000000000
  0.6666700000000000  0.3333300000000000  0.8333300000000000
  0.3333300000000000  0.6666700000000000  0.1666700000000000
  0.0000000000000000  0.0000000000000000  0.7324200000000001
  0.0000000000000000  0.0000000000000000  0.2675800000000000
  0.6666700000000000  0.3333300000000000  0.0657500000000000
  0.6666600000000000  0.3333400000000000  0.6009200000000000
  0.3333400000000000  0.6666600000000000  0.3990800000000000
  0.3333300000000000  0.6666700000000000  0.9342500000000000
