Co Ir Se  N 
 1.0000000000000000
     3.3121000000000000    0.0000000000000000    0.0000000000000000
    -1.6560499999999994    2.8683627398744393    0.0000000000000000
     0.0000000000000000    0.0000000000000000    9.0113000000000003
 Co  Ir  Se  N  
   2   2   2   1
Direct
  0.6666700000000001  0.3333400000000000  0.5806300000000000
  0.3333300000000001  0.6666600000000000  0.4193700000000000
  0.6666200000000000  0.3333100000000000  0.8781600000000001
  0.3333800000000000  0.6666900000000000  0.1218400000000000
  0.6666700000000001  0.3333300000000000  0.2959500000000000
  0.3333300000000001  0.6666700000000000  0.7040500000000000
  0.0000000000000000  0.0000000000000000  0.0000000000000000
