Cr Hf  C Se
 1.0000000000000000
     3.3029999999999999    0.0000000000000000    0.0000000000000000
    -1.6514999999999993    2.8604819087000011    0.0000000000000000
     0.0000000000000000    0.0000000000000000   25.8299999999999983
 Cr  Hf  C   Se
   3   6   3   6
Direct
  0.0000000000000000  0.0000000000000000  0.0000000000000000
  0.4870700000000000  0.5129300000000000  0.3164200000000000
  0.5129300000000000  0.4870700000000001  0.6835800000000000
  0.2538700000000000  0.7461300000000001  0.8503500000000001
  0.7461300000000000  0.2538700000000000  0.1496500000000000
  0.4098000000000000  0.5901999999999999  0.2064900000000000
  0.6666400000000000  0.3333600000000000  0.4706700000000000
  0.3333600000000000  0.6666400000000000  0.5293300000000000
  0.5901999999999998  0.4098000000000000  0.7935100000000000
  0.0000000000000000  0.0000000000000000  0.5000000000000000
  0.9199799999999998  0.0800200000000000  0.8219500000000000
  0.0800199999999999  0.9199800000000000  0.1780500000000000
  0.1829800000000001  0.8170200000000001  0.7102300000000000
  0.8170199999999999  0.1829800000000000  0.2897700000000000
  0.6677399999999998  0.3322600000000000  0.0493600000000000
  0.0016700000000000  0.9983300000000001  0.6031800000000000
  0.9983299999999999  0.0016700000000000  0.3968200000000000
  0.3322600000000000  0.6677400000000000  0.9506400000000000
