Na Rh  N  S 
 1.0000000000000000
     3.3029999999999999    0.0000000000000000    0.0000000000000000
    -1.6514999999999991    2.8604819087000011    0.0000000000000000
     0.0000000000000000    0.0000000000000000   25.8299999999999983
 Na  Rh  N   S  
   3   6   3   6
Direct
  0.0000000000000000  0.0000000000000000  0.0000000000000000
  0.6666700000000000  0.3333300000000000  0.3333400000000001
  0.3333300000000000  0.6666700000000000  0.6666600000000001
  0.9999600000000000  0.0000400000000000  0.8750700000000000
  0.0000400000000001  0.9999600000000000  0.1249300000000000
  0.6666999999999998  0.3333000000000000  0.2082700000000000
  0.6666700000000000  0.3333300000000000  0.4583200000000000
  0.3333300000000000  0.6666700000000000  0.5416800000000001
  0.3332999999999999  0.6667000000000000  0.7917300000000000
  0.0000000000000000  0.0000000000000000  0.5000000000000000
  0.6667200000000000  0.3332800000000000  0.8335300000000000
  0.3332800000000000  0.6667200000000000  0.1664700000000000
  0.0000100000000001  0.9999900000000002  0.7504600000000000
  0.9999899999999998  0.0000100000000000  0.2495400000000000
  0.6666600000000000  0.3333400000000000  0.0837100000000000
  0.6666700000000000  0.3333300000000000  0.5829200000000000
  0.3333300000000000  0.6666700000000000  0.4170800000000000
  0.3333400000000000  0.6666600000000000  0.9162900000000000
