Na Hg  N  S 
 1.0000000000000000
     3.3029999999999999    0.0000000000000000    0.0000000000000000
    -1.6514999999999991    2.8604819087000011    0.0000000000000000
     0.0000000000000000    0.0000000000000000   25.8299999999999983
 Na  Hg  N   S  
   3   6   3   6
Direct
  0.0000000000000000  0.0000000000000000  0.0000000000000000
  0.6666700000000000  0.3333300000000000  0.3333300000000001
  0.3333300000000000  0.6666700000000000  0.6666700000000001
  0.0000000000000000  0.0000000000000000  0.8857400000000001
  0.0000000000000000  0.0000000000000000  0.1142600000000000
  0.6666700000000000  0.3333300000000000  0.2189900000000000
  0.6666600000000000  0.3333400000000000  0.4476300000000000
  0.3333400000000000  0.6666600000000000  0.5523700000000000
  0.3333300000000000  0.6666700000000000  0.7810100000000000
  0.0000000000000000  0.0000000000000000  0.5000000000000000
  0.6666700000000000  0.3333300000000000  0.8334200000000000
  0.3333300000000000  0.6666700000000000  0.1665800000000000
  0.9999899999999998  0.0000100000000000  0.7155700000000000
  0.0000100000000001  0.9999900000000002  0.2844300000000000
  0.6666600000000000  0.3333400000000000  0.0488900000000000
  0.6666700000000000  0.3333300000000000  0.6177700000000000
  0.3333300000000000  0.6666700000000000  0.3822300000000000
  0.3333400000000000  0.6666600000000000  0.9511100000000000
