Ag  V  N  S 
 1.0000000000000000
     3.3029999999999999    0.0000000000000000    0.0000000000000000
    -1.6514999999999991    2.8604819087000011    0.0000000000000000
     0.0000000000000000    0.0000000000000000   25.8299999999999983
 Ag  V   N   S  
   3   6   3   6
Direct
  0.0000000000000000  0.0000000000000000  0.0000000000000000
  0.6666700000000000  0.3333300000000000  0.3333300000000001
  0.3333300000000000  0.6666700000000000  0.6666700000000001
  0.0000000000000000  0.0000000000000000  0.8609700000000000
  0.0000000000000000  0.0000000000000000  0.1390300000000000
  0.6666600000000000  0.3333400000000000  0.1942000000000000
  0.6666700000000000  0.3333300000000000  0.4724100000000000
  0.3333300000000000  0.6666700000000000  0.5275900000000000
  0.3333400000000000  0.6666600000000000  0.8058000000000000
  0.0000000000000000  0.0000000000000000  0.5000000000000000
  0.6666600000000000  0.3333400000000000  0.8334100000000000
  0.3333400000000000  0.6666600000000000  0.1665900000000000
  0.0000100000000001  0.9999900000000002  0.7539200000000000
  0.9999899999999998  0.0000100000000000  0.2460800000000000
  0.6666800000000001  0.3333200000000000  0.0871600000000000
  0.6666600000000000  0.3333400000000000  0.5794600000000000
  0.3333400000000000  0.6666600000000000  0.4205400000000000
  0.3333200000000000  0.6666800000000001  0.9128400000000000
