Zr  S  C 
 1.0000000000000000
     3.2690000000000001    0.0000000000000000    0.0000000000000000
    -1.6344999999999992    2.8310370449713305    0.0000000000000000
     0.0000000000000000    0.0000000000000000    8.5470000000000006
 Zr  S   C  
   2   2   1
Direct
  0.6666899999999998  0.3333400000000000  0.8434400000000000
  0.3333100000000000  0.6666600000000000  0.1565600000000000
  0.6666599999999998  0.3333300000000000  0.3492300000000000
  0.3333399999999999  0.6666700000000000  0.6507700000000000
  0.0000000000000000  0.0000000000000000  0.0000000000000000
