Sc Ni  C Te
 1.0000000000000000
     3.3029999999999999    0.0000000000000000    0.0000000000000000
    -1.6514999999999993    2.8604819087000011    0.0000000000000000
     0.0000000000000000    0.0000000000000000   25.8299999999999983
 Sc  Ni  C   Te
   3   6   3   6
Direct
  0.0000000000000000  0.0000000000000000  0.0000000000000000
  0.6667300000000000  0.3332700000000000  0.3333200000000000
  0.3332700000000000  0.6667300000000000  0.6666800000000002
  0.0000000000000000  0.0000000000000000  0.8683200000000000
  0.0000000000000000  0.0000000000000000  0.1316800000000000
  0.6666600000000000  0.3333400000000000  0.2016500000000000
  0.6666499999999999  0.3333500000000000  0.4650100000000000
  0.3333499999999999  0.6666500000000000  0.5349900000000000
  0.3333400000000000  0.6666600000000000  0.7983500000000000
  0.0000000000000000  0.0000000000000000  0.5000000000000000
  0.6666600000000000  0.3333400000000000  0.8333300000000000
  0.3333400000000000  0.6666600000000000  0.1666700000000000
  0.0000300000000000  0.9999700000000000  0.7312300000000000
  0.9999699999999998  0.0000300000000000  0.2687700000000000
  0.6666600000000000  0.3333400000000000  0.0645700000000000
  0.6666999999999998  0.3333000000000000  0.6021000000000000
  0.3332999999999999  0.6667000000000000  0.3979000000000000
  0.3333400000000000  0.6666600000000000  0.9354300000000001
