Cd Se Ge 
 1.0000000000000000
     3.2690000000000001    0.0000000000000000    0.0000000000000000
    -1.6344999999999994    2.8310370449713305    0.0000000000000000
     0.0000000000000000    0.0000000000000000    8.5470000000000006
 Cd  Se  Ge 
   2   2   1
Direct
  0.7222200000000000  0.3611100000000000  0.7578000000000000
  0.2777800000000000  0.6388900000000001  0.2422000000000000
  0.6204099999999999  0.3102100000000000  0.4486100000000000
  0.3795899999999999  0.6897900000000000  0.5513899999999999
  0.0000000000000000  0.0000000000000000  0.0000000000000000
