Ir  S Sn 
 1.0000000000000000
     3.2690000000000001    0.0000000000000000    0.0000000000000000
    -1.6344999999999994    2.8310370449713305    0.0000000000000000
     0.0000000000000000    0.0000000000000000    8.5470000000000006
 Ir  S   Sn 
   2   2   1
Direct
  0.6666799999999998  0.3333400000000000  0.7840400000000000
  0.3333199999999999  0.6666600000000000  0.2159600000000000
  0.6666200000000000  0.3333100000000000  0.3549300000000000
  0.3333800000000001  0.6666900000000001  0.6450700000000000
  0.0000000000000000  0.0000000000000000  0.0000000000000000
