Ca Sc  C  S
 1.0000000000000000
     3.3029999999999999    0.0000000000000000    0.0000000000000000
    -1.6514999999999991    2.8604819087000011    0.0000000000000000
     0.0000000000000000    0.0000000000000000   25.8299999999999983
 Ca  Sc  C   S
   3   6   3   6
Direct
  0.0000000000000000  0.0000000000000000  0.0000000000000000
  0.6666700000000000  0.3333300000000000  0.3333300000000001
  0.3333300000000000  0.6666700000000000  0.6666700000000001
  0.0000000000000000  0.0000000000000000  0.8766500000000002
  0.0000000000000000  0.0000000000000000  0.1233500000000000
  0.6666700000000000  0.3333300000000000  0.2099900000000000
  0.6666700000000000  0.3333300000000000  0.4566800000000000
  0.3333300000000000  0.6666700000000000  0.5433200000000000
  0.3333300000000000  0.6666700000000000  0.7900100000000000
  0.0000000000000000  0.0000000000000000  0.5000000000000000
  0.6666700000000000  0.3333300000000000  0.8333300000000000
  0.3333300000000000  0.6666700000000000  0.1666700000000000
  0.0000000000000000  0.0000000000000000  0.7304900000000001
  0.0000000000000000  0.0000000000000000  0.2695100000000000
  0.6666700000000000  0.3333300000000000  0.0638200000000000
  0.6666700000000000  0.3333300000000000  0.6028500000000000
  0.3333300000000000  0.6666700000000000  0.3971500000000001
  0.3333300000000000  0.6666700000000000  0.9361800000000000
