Mg Co  C Se
 1.0000000000000000
     3.3029999999999999    0.0000000000000000    0.0000000000000000
    -1.6514999999999993    2.8604819087000011    0.0000000000000000
     0.0000000000000000    0.0000000000000000   25.8299999999999983
 Mg  Co  C   Se
   3   6   3   6
Direct
  0.0000000000000000  0.0000000000000000  0.0000000000000000
  0.6666700000000000  0.3333300000000000  0.3334400000000001
  0.3333300000000000  0.6666700000000000  0.6665600000000000
  0.0000000000000000  0.0000000000000000  0.8642000000000000
  0.0000000000000000  0.0000000000000000  0.1358000000000000
  0.6666700000000000  0.3333300000000000  0.1975000000000000
  0.6666600000000000  0.3333400000000000  0.4691000000000000
  0.3333400000000000  0.6666600000000000  0.5309000000000000
  0.3333300000000000  0.6666700000000000  0.8025000000000000
  0.0000000000000000  0.0000000000000000  0.5000000000000000
  0.6666700000000000  0.3333300000000000  0.8333300000000000
  0.3333300000000000  0.6666700000000000  0.1666700000000000
  0.0000100000000001  0.9999900000000002  0.7374200000000000
  0.9999899999999998  0.0000100000000000  0.2625800000000000
  0.6666700000000000  0.3333300000000000  0.0708100000000000
  0.6666600000000000  0.3333400000000000  0.5957300000000000
  0.3333400000000000  0.6666600000000000  0.4042700000000000
  0.3333300000000000  0.6666700000000000  0.9291900000000000
