 V Sc  C  S
 1.0000000000000000
     3.3029999999999999    0.0000000000000000    0.0000000000000000
    -1.6514999999999991    2.8604819087000011    0.0000000000000000
     0.0000000000000000    0.0000000000000000   25.8299999999999983
 V   Sc  C   S
   3   6   3   6
Direct
  0.0000000000000000  0.0000000000000000  0.0000000000000000
  0.6666700000000000  0.3333300000000000  0.3333300000000001
  0.3333300000000000  0.6666700000000000  0.6666700000000001
  0.0000000000000000  0.0000000000000000  0.8790300000000000
  0.0000000000000000  0.0000000000000000  0.1209700000000000
  0.6666700000000000  0.3333300000000000  0.2123600000000000
  0.6666700000000000  0.3333300000000000  0.4543000000000000
  0.3333300000000000  0.6666700000000000  0.5457000000000000
  0.3333300000000000  0.6666700000000000  0.7876400000000000
  0.0000000000000000  0.0000000000000000  0.5000000000000000
  0.6666700000000000  0.3333300000000000  0.8333300000000000
  0.3333300000000000  0.6666700000000000  0.1666700000000000
  0.0000000000000000  0.0000000000000000  0.7208500000000000
  0.0000000000000000  0.0000000000000000  0.2791500000000000
  0.6666700000000000  0.3333300000000000  0.0541900000000000
  0.6666700000000000  0.3333300000000000  0.6124800000000000
  0.3333300000000000  0.6666700000000000  0.3875200000000000
  0.3333300000000000  0.6666700000000000  0.9458100000000000
