Ag Os  C Te
 1.0000000000000000
     3.3029999999999999    0.0000000000000000    0.0000000000000000
    -1.6514999999999993    2.8604819087000011    0.0000000000000000
     0.0000000000000000    0.0000000000000000   25.8299999999999983
 Ag  Os  C   Te
   3   6   3   6
Direct
  0.0000000000000000  0.0000000000000000  0.0000000000000000
  0.6397800000000000  0.3602200000000000  0.3330600000000000
  0.3602200000000000  0.6397800000000000  0.6669400000000000
  0.1461399999999999  0.8538600000000000  0.8718900000000001
  0.8538600000000000  0.1461400000000000  0.1281100000000000
  0.6360300000000000  0.3639700000000000  0.2075100000000000
  0.7278399999999998  0.2721600000000000  0.4627900000000000
  0.2721600000000000  0.7278400000000000  0.5372100000000000
  0.3639700000000000  0.6360300000000000  0.7924900000000000
  0.0000000000000000  0.0000000000000000  0.5000000000000000
  0.6590599999999999  0.3409400000000000  0.8345000000000000
  0.3409400000000000  0.6590600000000000  0.1655000000000000
  0.0314700000000000  0.9685300000000000  0.7392400000000000
  0.9685299999999998  0.0314700000000000  0.2607600000000000
  0.5532100000000000  0.4467900000000000  0.0715800000000000
  0.6855799999999997  0.3144200000000000  0.5951400000000000
  0.3144200000000000  0.6855800000000000  0.4048600000000000
  0.4467900000000000  0.5532100000000000  0.9284200000000000
