Ta Te Pb 
 1.0000000000000000
     3.2709999999999999    0.0000000000000000    0.0000000000000000
    -1.6354999999999993    2.8327690957788989    0.0000000000000000
     0.0000000000000000    0.0000000000000000   25.4780000000000015
 Ta  Te  Pb 
   6   6   3
Direct
  0.9999999999999997  0.9999999999999998  0.5864600000000000
  0.0000000000000000  0.0000000000000000  0.4135400000000000
  0.6666700000000000  0.3333300000000000  0.9197899999999998
  0.6666700000000000  0.3333300000000000  0.7468800000000000
  0.3333300000000000  0.6666700000000000  0.2531200000000000
  0.3333300000000000  0.6666700000000000  0.0802100000000000
  0.9999999999999997  0.9999999999999998  0.7877800000000000
  0.0000000000000000  0.0000000000000000  0.2122200000000000
  0.6666700000000000  0.3333300000000000  0.1211100000000000
  0.6666700000000000  0.3333300000000000  0.5455500000000000
  0.3333300000000000  0.6666700000000000  0.4544500000000000
  0.3333300000000000  0.6666700000000000  0.8788899999999999
  0.0000000000000000  0.0000000000000000  0.0000000000000000
  0.6666800000000001  0.3333199999999999  0.3333300000000000
  0.3333199999999999  0.6666800000000001  0.6666699999999999
