Ru Se As 
 1.0000000000000000
     3.2709999999999999    0.0000000000000000    0.0000000000000000
    -1.6354999999999993    2.8327690957788989    0.0000000000000000
     0.0000000000000000    0.0000000000000000   25.4780000000000015
 Ru  Se  As 
   6   6   3
Direct
  0.9999600000000000  0.0000400000000000  0.6194200000000000
  0.0000399999999999  0.9999599999999998  0.3805800000000000
  0.6667000000000000  0.3333000000000000  0.9527500000000000
  0.6667100000000000  0.3332900000000000  0.7139099999999999
  0.3332900000000000  0.6667100000000000  0.2860900000000000
  0.3332999999999999  0.6667000000000000  0.0472500000000000
  0.9999800000000000  0.0000200000000000  0.7723300000000000
  0.0000199999999999  0.9999799999999998  0.2276700000000000
  0.6666800000000001  0.3333199999999999  0.1056700000000000
  0.6666900000000000  0.3333099999999999  0.5610000000000001
  0.3333100000000000  0.6666900000000000  0.4390000000000000
  0.3333199999999999  0.6666800000000001  0.8943300000000000
  0.0000000000000000  0.0000000000000000  0.0000000000000000
  0.6666700000000000  0.3333300000000000  0.3333300000000000
  0.3333300000000000  0.6666700000000000  0.6666699999999999
