Na  V  N Se 
 1.0000000000000000
     3.3029999999999999    0.0000000000000000    0.0000000000000000
    -1.6514999999999991    2.8604819087000011    0.0000000000000000
     0.0000000000000000    0.0000000000000000   25.8299999999999983
 Na  V   N   Se 
   3   6   3   6
Direct
  0.0000000000000000  0.0000000000000000  0.0000000000000000
  0.6666700000000000  0.3333300000000000  0.3333300000000001
  0.3333300000000000  0.6666700000000000  0.6666700000000001
  0.0000000000000000  0.0000000000000000  0.8597600000000000
  0.0000000000000000  0.0000000000000000  0.1402400000000000
  0.6666700000000000  0.3333300000000000  0.1930400000000000
  0.6666700000000000  0.3333300000000000  0.4736000000000001
  0.3333300000000000  0.6666700000000000  0.5264000000000000
  0.3333300000000000  0.6666700000000000  0.8069600000000001
  0.0000000000000000  0.0000000000000000  0.5000000000000000
  0.6666700000000000  0.3333300000000000  0.8333800000000000
  0.3333300000000000  0.6666700000000000  0.1666200000000000
  0.0000000000000000  0.0000000000000000  0.7502500000000000
  0.0000000000000000  0.0000000000000000  0.2497500000000001
  0.6666700000000000  0.3333300000000000  0.0835500000000000
  0.6666700000000000  0.3333300000000000  0.5831000000000000
  0.3333300000000000  0.6666700000000000  0.4169000000000000
  0.3333300000000000  0.6666700000000000  0.9164500000000002
