Ni  C Se
 1.0000000000000000
     3.3029999999999999    0.0000000000000000    0.0000000000000000
    -1.6514999999999993    2.8604819087000011    0.0000000000000000
     0.0000000000000000    0.0000000000000000   25.8299999999999983
 Ni  C   Se
   9   3   6
Direct
  0.0000000000000000  0.0000000000000000  0.0000000000000000
  0.6666700000000000  0.3333300000000000  0.3333300000000001
  0.3333300000000000  0.6666700000000000  0.6666700000000001
  0.0000000000000000  0.0000000000000000  0.8689900000000000
  0.0000000000000000  0.0000000000000000  0.1310100000000000
  0.6666700000000000  0.3333300000000000  0.2023200000000000
  0.6666700000000000  0.3333300000000000  0.4643500000000000
  0.3333300000000000  0.6666700000000000  0.5356500000000000
  0.3333300000000000  0.6666700000000000  0.7976800000000002
  0.0000000000000000  0.0000000000000000  0.5000000000000000
  0.6666700000000000  0.3333300000000000  0.8333300000000000
  0.3333300000000000  0.6666700000000000  0.1666700000000000
  0.0000100000000001  0.9999900000000002  0.7240700000000000
  0.9999899999999998  0.0000100000000000  0.2759300000000000
  0.6666700000000000  0.3333300000000000  0.0574100000000000
  0.6666600000000000  0.3333400000000000  0.6092600000000000
  0.3333400000000000  0.6666600000000000  0.3907400000000000
  0.3333300000000000  0.6666700000000000  0.9425900000000001
