Ag  W  N  S 
 1.0000000000000000
     3.3029999999999999    0.0000000000000000    0.0000000000000000
    -1.6514999999999991    2.8604819087000011    0.0000000000000000
     0.0000000000000000    0.0000000000000000   25.8299999999999983
 Ag  W   N   S  
   3   6   3   6
Direct
  0.0000000000000000  0.0000000000000000  0.0000000000000000
  0.6666700000000000  0.3333300000000000  0.3338700000000001
  0.3333300000000000  0.6666700000000000  0.6661300000000000
  0.9999699999999998  0.0000300000000000  0.8630300000000000
  0.0000300000000000  0.9999700000000000  0.1369700000000000
  0.6666400000000000  0.3333600000000000  0.1958100000000000
  0.6666900000000000  0.3333100000000000  0.4706100000000000
  0.3333099999999999  0.6666900000000000  0.5293900000000000
  0.3333600000000000  0.6666400000000000  0.8041900000000000
  0.0000000000000000  0.0000000000000000  0.5000000000000000
  0.6666600000000000  0.3333400000000000  0.8355900000000002
  0.3333400000000000  0.6666600000000000  0.1644100000000000
  0.0000500000000000  0.9999500000000000  0.7548800000000000
  0.9999500000000000  0.0000500000000000  0.2451200000000000
  0.6667400000000000  0.3332600000000000  0.0864200000000000
  0.6666199999999999  0.3333800000000000  0.5791900000000000
  0.3333800000000000  0.6666200000000000  0.4208100000000000
  0.3332599999999999  0.6667400000000000  0.9135799999999999
