Mn  C  S
 1.0000000000000000
     3.3029999999999999    0.0000000000000000    0.0000000000000000
    -1.6514999999999991    2.8604819087000011    0.0000000000000000
     0.0000000000000000    0.0000000000000000   25.8299999999999983
 Mn  C   S
   9   3   6
Direct
  0.0000000000000000  0.0000000000000000  0.0000000000000000
  0.6666700000000000  0.3333300000000000  0.3333300000000001
  0.3333300000000000  0.6666700000000000  0.6666700000000001
  0.0000100000000001  0.9999900000000002  0.8685400000000000
  0.9999899999999998  0.0000100000000000  0.1314600000000000
  0.6666800000000001  0.3333200000000000  0.2018800000000000
  0.6666499999999999  0.3333500000000000  0.4647900000000000
  0.3333499999999999  0.6666500000000000  0.5352100000000000
  0.3333200000000000  0.6666800000000001  0.7981200000000001
  0.0000000000000000  0.0000000000000000  0.5000000000000000
  0.6666600000000000  0.3333400000000000  0.8333400000000000
  0.3333400000000000  0.6666600000000000  0.1666600000000000
  0.0000100000000001  0.9999900000000002  0.7241100000000000
  0.9999899999999998  0.0000100000000000  0.2758900000000000
  0.6666700000000000  0.3333300000000000  0.0574400000000000
  0.6666600000000000  0.3333400000000000  0.6092300000000000
  0.3333400000000000  0.6666600000000000  0.3907700000000000
  0.3333300000000000  0.6666700000000000  0.9425600000000000
