Fe Mo  N  S 
 1.0000000000000000
     3.3029999999999999    0.0000000000000000    0.0000000000000000
    -1.6514999999999991    2.8604819087000011    0.0000000000000000
     0.0000000000000000    0.0000000000000000   25.8299999999999983
 Fe  Mo  N   S  
   3   6   3   6
Direct
  0.0000000000000000  0.0000000000000000  0.0000000000000000
  0.6666299999999999  0.3333700000000000  0.3811200000000000
  0.3333700000000000  0.6666299999999999  0.6188800000000000
  0.0000200000000001  0.9999800000000001  0.8384800000000000
  0.9999800000000000  0.0000200000000000  0.1615200000000000
  0.6666700000000000  0.3333300000000000  0.2247200000000000
  0.6666600000000000  0.3333400000000000  0.4682100000000000
  0.3333400000000000  0.6666600000000000  0.5317900000000000
  0.3333300000000000  0.6666700000000000  0.7752800000000000
  0.0000000000000000  0.0000000000000000  0.5000000000000000
  0.6666800000000001  0.3333200000000000  0.8281200000000000
  0.3333200000000000  0.6666800000000001  0.1718800000000000
  0.9999899999999998  0.0000100000000000  0.7322400000000000
  0.0000100000000001  0.9999900000000002  0.2677600000000000
  0.6666900000000000  0.3333100000000000  0.0439200000000000
  0.6666900000000000  0.3333100000000000  0.5824900000000000
  0.3333099999999999  0.6666900000000000  0.4175100000000000
  0.3333099999999999  0.6666900000000000  0.9560800000000000
