Na Hg  C  S
 1.0000000000000000
     3.3029999999999999    0.0000000000000000    0.0000000000000000
    -1.6514999999999991    2.8604819087000011    0.0000000000000000
     0.0000000000000000    0.0000000000000000   25.8299999999999983
 Na  Hg  C   S
   3   6   3   6
Direct
  0.0000000000000000  0.0000000000000000  0.0000000000000000
  0.6666700000000000  0.3333300000000000  0.3333300000000001
  0.3333300000000000  0.6666700000000000  0.6666700000000001
  0.0000000000000000  0.0000000000000000  0.8825499999999999
  0.0000000000000000  0.0000000000000000  0.1174500000000000
  0.6666700000000000  0.3333300000000000  0.2158900000000000
  0.6666700000000000  0.3333300000000000  0.4507800000000000
  0.3333300000000000  0.6666700000000000  0.5492200000000000
  0.3333300000000000  0.6666700000000000  0.7841100000000000
  0.0000000000000000  0.0000000000000000  0.5000000000000000
  0.6666700000000000  0.3333300000000000  0.8333300000000000
  0.3333300000000000  0.6666700000000000  0.1666700000000000
  0.0000000000000000  0.0000000000000000  0.7246100000000001
  0.0000000000000000  0.0000000000000000  0.2753900000000000
  0.6666700000000000  0.3333300000000000  0.0579400000000000
  0.6666700000000000  0.3333300000000000  0.6087200000000000
  0.3333300000000000  0.6666700000000000  0.3912800000000000
  0.3333300000000000  0.6666700000000000  0.9420600000000000
