Cr Hg  N  S 
 1.0000000000000000
     3.3029999999999999    0.0000000000000000    0.0000000000000000
    -1.6514999999999991    2.8604819087000011    0.0000000000000000
     0.0000000000000000    0.0000000000000000   25.8299999999999983
 Cr  Hg  N   S  
   3   6   3   6
Direct
  0.0000000000000000  0.0000000000000000  0.0000000000000000
  0.6667200000000000  0.3332800000000000  0.3333200000000000
  0.3332800000000000  0.6667200000000000  0.6666800000000002
  0.0000000000000000  0.0000000000000000  0.8892500000000000
  0.0000000000000000  0.0000000000000000  0.1107500000000000
  0.6666800000000001  0.3333200000000000  0.2225300000000000
  0.6666800000000001  0.3333200000000000  0.4441100000000001
  0.3333200000000000  0.6666800000000001  0.5558900000000000
  0.3333200000000000  0.6666800000000001  0.7774700000000001
  0.0000000000000000  0.0000000000000000  0.5000000000000000
  0.6666999999999998  0.3333000000000000  0.8333900000000000
  0.3332999999999999  0.6667000000000000  0.1666100000000000
  0.0000200000000001  0.9999800000000001  0.7036400000000000
  0.9999800000000000  0.0000200000000000  0.2963600000000000
  0.6666700000000000  0.3333300000000000  0.0369700000000000
  0.6666700000000000  0.3333300000000000  0.6296800000000000
  0.3333300000000000  0.6666700000000000  0.3703200000000000
  0.3333300000000000  0.6666700000000000  0.9630300000000001
