Li Hf  S  C 
 1.0000000000000000
     3.3121000000000000    0.0000000000000000    0.0000000000000000
    -1.6560499999999991    2.8683627398744393    0.0000000000000000
     0.0000000000000000    0.0000000000000000    9.0113000000000003
 Li  Hf  S   C  
   2   2   2   1
Direct
  0.6666600000000003  0.3333300000000000  0.5673500000000000
  0.3333400000000000  0.6666700000000000  0.4326500000000000
  0.6666600000000003  0.3333300000000000  0.8715200000000000
  0.3333400000000000  0.6666700000000000  0.1284800000000000
  0.6666700000000001  0.3333300000000000  0.3179300000000000
  0.3333300000000001  0.6666700000000000  0.6820700000000000
  0.0000000000000000  0.0000000000000000  0.0000000000000000
