Cu Zr  N Se 
 1.0000000000000000
     3.3029999999999999    0.0000000000000000    0.0000000000000000
    -1.6514999999999993    2.8604819087000011    0.0000000000000000
     0.0000000000000000    0.0000000000000000   25.8299999999999983
 Cu  Zr  N   Se 
   3   6   3   6
Direct
  0.0000000000000000  0.0000000000000000  0.0000000000000000
  0.4309300000000000  0.5690700000000000  0.3260200000000000
  0.5690700000000000  0.4309300000000000  0.6739800000000000
  0.0452900000000000  0.9547099999999999  0.8583100000000002
  0.9547099999999999  0.0452900000000000  0.1416900000000000
  0.6394900000000000  0.3605100000000000  0.2037800000000000
  0.6697500000000000  0.3302500000000000  0.4709500000000000
  0.3302500000000000  0.6697500000000000  0.5290500000000000
  0.3605100000000000  0.6394900000000000  0.7962200000000000
  0.0000000000000000  0.0000000000000000  0.5000000000000000
  0.7250500000000000  0.2749500000000000  0.8430400000000000
  0.2749500000000000  0.7250499999999999  0.1569600000000000
  0.0470600000000000  0.9529400000000000  0.7512300000000000
  0.9529399999999999  0.0470600000000000  0.2487700000000000
  0.4706900000000000  0.5293099999999999  0.0753900000000000
  0.7525600000000000  0.2474400000000000  0.5938099999999999
  0.2474399999999999  0.7525600000000000  0.4061900000000000
  0.5293099999999999  0.4706900000000001  0.9246100000000000
