Cu Te  N 
 1.0000000000000000
     3.2709999999999999    0.0000000000000000    0.0000000000000000
    -1.6354999999999991    2.8327690957788989    0.0000000000000000
     0.0000000000000000    0.0000000000000000   25.4780000000000015
 Cu  Te  N  
   6   6   3
Direct
  0.0000000000000000  0.0000000000000000  0.6296999999999998
  0.9999999999999997  0.9999999999999998  0.3702999999999999
  0.6666700000000000  0.3333300000000000  0.9630300000000001
  0.6666700000000000  0.3333300000000000  0.7036299999999999
  0.3333300000000000  0.6666700000000000  0.2963700000000000
  0.3333300000000000  0.6666700000000000  0.0369700000000000
  0.9999999999999997  0.9999999999999998  0.7780400000000000
  0.0000000000000000  0.0000000000000000  0.2219600000000000
  0.6666700000000000  0.3333300000000000  0.1113800000000000
  0.6666700000000000  0.3333300000000000  0.5552900000000000
  0.3333300000000000  0.6666700000000000  0.4447100000000000
  0.3333300000000000  0.6666700000000000  0.8886199999999999
  0.0000000000000000  0.0000000000000000  0.0000000000000000
  0.6666700000000000  0.3333300000000000  0.3333300000000000
  0.3333300000000000  0.6666700000000000  0.6666699999999999
