Sc  S Bi 
 1.0000000000000000
     3.2690000000000001    0.0000000000000000    0.0000000000000000
    -1.6344999999999994    2.8310370449713305    0.0000000000000000
     0.0000000000000000    0.0000000000000000    8.5470000000000006
 Sc  S   Bi 
   2   2   1
Direct
  0.4742199999999999  0.2371100000000000  0.7315799999999999
  0.5257800000000000  0.7628900000000000  0.2684200000000000
  0.8548799999999999  0.4274400000000000  0.3382100000000000
  0.1451199999999999  0.5725600000000000  0.6617900000000000
  0.0000000000000000  0.0000000000000000  0.0000000000000000
