Fe Zr  C  S
 1.0000000000000000
     3.3029999999999999    0.0000000000000000    0.0000000000000000
    -1.6514999999999991    2.8604819087000011    0.0000000000000000
     0.0000000000000000    0.0000000000000000   25.8299999999999983
 Fe  Zr  C   S
   3   6   3   6
Direct
  0.0000000000000000  0.0000000000000000  0.0000000000000000
  0.6666700000000000  0.3333300000000000  0.3333300000000001
  0.3333300000000000  0.6666700000000000  0.6666700000000001
  0.9999899999999998  0.0000100000000000  0.8823500000000001
  0.0000100000000001  0.9999900000000002  0.1176500000000000
  0.6666600000000000  0.3333400000000000  0.2156800000000001
  0.6666700000000000  0.3333300000000000  0.4509900000000000
  0.3333300000000000  0.6666700000000000  0.5490100000000000
  0.3333400000000000  0.6666600000000000  0.7843200000000000
  0.0000000000000000  0.0000000000000000  0.5000000000000000
  0.6666700000000000  0.3333300000000000  0.8333300000000000
  0.3333300000000000  0.6666700000000000  0.1666700000000000
  0.0000100000000001  0.9999900000000002  0.7132100000000001
  0.9999899999999998  0.0000100000000000  0.2867900000000000
  0.6666800000000001  0.3333200000000000  0.0465400000000000
  0.6666499999999999  0.3333500000000000  0.6201200000000001
  0.3333499999999999  0.6666500000000000  0.3798800000000001
  0.3333200000000000  0.6666800000000001  0.9534600000000000
