Hg Se  N 
 1.0000000000000000
     3.2709999999999999    0.0000000000000000    0.0000000000000000
    -1.6354999999999991    2.8327690957788989    0.0000000000000000
     0.0000000000000000    0.0000000000000000   25.4780000000000015
 Hg  Se  N  
   6   6   3
Direct
  0.0000000000000000  0.0000000000000000  0.6132100000000000
  0.9999999999999997  0.9999999999999998  0.3867900000000000
  0.6666600000000000  0.3333400000000000  0.9465500000000000
  0.6666700000000000  0.3333300000000000  0.7201200000000000
  0.3333300000000000  0.6666700000000000  0.2798800000000000
  0.3333400000000000  0.6666600000000000  0.0534500000000000
  0.9999999999999997  0.9999999999999998  0.7979300000000000
  0.0000000000000000  0.0000000000000000  0.2020700000000000
  0.6666700000000000  0.3333300000000000  0.1312600000000000
  0.6666700000000000  0.3333300000000000  0.5354100000000001
  0.3333300000000000  0.6666700000000000  0.4645900000000000
  0.3333300000000000  0.6666700000000000  0.8687400000000000
  0.0000000000000000  0.0000000000000000  0.0000000000000000
  0.6666700000000000  0.3333300000000000  0.3333300000000000
  0.3333300000000000  0.6666700000000000  0.6666699999999999
