Li Au  N  S 
 1.0000000000000000
     3.3029999999999999    0.0000000000000000    0.0000000000000000
    -1.6514999999999991    2.8604819087000011    0.0000000000000000
     0.0000000000000000    0.0000000000000000   25.8299999999999983
 Li  Au  N   S  
   3   6   3   6
Direct
  0.0000000000000000  0.0000000000000000  0.0000000000000000
  0.6666700000000000  0.3333300000000000  0.3333300000000001
  0.3333300000000000  0.6666700000000000  0.6666700000000001
  0.0000000000000000  0.0000000000000000  0.8822500000000000
  0.0000000000000000  0.0000000000000000  0.1177500000000000
  0.6666700000000000  0.3333300000000000  0.2155000000000000
  0.6666600000000000  0.3333400000000000  0.4511300000000000
  0.3333400000000000  0.6666600000000000  0.5488700000000000
  0.3333300000000000  0.6666700000000000  0.7845000000000000
  0.0000000000000000  0.0000000000000000  0.5000000000000000
  0.6666700000000000  0.3333300000000000  0.8334600000000000
  0.3333300000000000  0.6666700000000000  0.1665400000000000
  0.0000000000000000  0.0000000000000000  0.7259000000000000
  0.0000000000000000  0.0000000000000000  0.2741000000000000
  0.6666700000000000  0.3333300000000000  0.0592100000000000
  0.6666700000000000  0.3333300000000000  0.6074400000000000
  0.3333300000000000  0.6666700000000000  0.3925600000000000
  0.3333300000000000  0.6666700000000000  0.9407900000000000
