Cr  S  N 
 1.0000000000000000
     3.2690000000000001    0.0000000000000000    0.0000000000000000
    -1.6344999999999992    2.8310370449713305    0.0000000000000000
     0.0000000000000000    0.0000000000000000    8.5470000000000006
 Cr  S   N  
   2   2   1
Direct
  0.6667099999999998  0.3333600000000000  0.8717599999999999
  0.3332900000000000  0.6666400000000001  0.1282400000000000
  0.6667900000000001  0.3333900000000001  0.2908400000000000
  0.3332100000000000  0.6666100000000001  0.7091600000000000
  0.0000000000000000  0.0000000000000000  0.0000000000000000
