Mo Te As 
 1.0000000000000000
     3.2690000000000001    0.0000000000000000    0.0000000000000000
    -1.6344999999999994    2.8310370449713305    0.0000000000000000
     0.0000000000000000    0.0000000000000000    8.5470000000000006
 Mo  Te  As 
   2   2   1
Direct
  0.6596500000000000  0.3298300000000000  0.8731700000000000
  0.3403499999999999  0.6701700000000002  0.1268300000000000
  0.5546800000000000  0.2773400000000000  0.3184000000000000
  0.4453200000000000  0.7226600000000002  0.6816000000000000
  0.0000000000000000  0.0000000000000000  0.0000000000000000
