Re  S Bi 
 1.0000000000000000
     3.2690000000000001    0.0000000000000000    0.0000000000000000
    -1.6344999999999994    2.8310370449713305    0.0000000000000000
     0.0000000000000000    0.0000000000000000    8.5470000000000006
 Re  S   Bi 
   2   2   1
Direct
  0.6658499999999999  0.3329300000000001  0.7601400000000000
  0.3341500000000000  0.6670700000000001  0.2398600000000000
  0.6675600000000002  0.3337800000000001  0.3405900000000000
  0.3324399999999999  0.6662200000000000  0.6594100000000001
  0.0000000000000000  0.0000000000000000  0.0000000000000000
