Ag  S Si 
 1.0000000000000000
     3.2690000000000001    0.0000000000000000    0.0000000000000000
    -1.6344999999999994    2.8310370449713305    0.0000000000000000
     0.0000000000000000    0.0000000000000000    8.5470000000000006
 Ag  S   Si 
   2   2   1
Direct
  0.6267300000000000  0.3133600000000000  0.7978100000000000
  0.3732700000000000  0.6866400000000000  0.2021900000000000
  0.6257100000000000  0.3128500000000000  0.5099600000000000
  0.3742900000000000  0.6871500000000001  0.4900400000000000
  0.0000000000000000  0.0000000000000000  0.0000000000000000
