Re  S In 
 1.0000000000000000
     3.2709999999999999    0.0000000000000000    0.0000000000000000
    -1.6354999999999993    2.8327690957788989    0.0000000000000000
     0.0000000000000000    0.0000000000000000   25.4780000000000015
 Re  S   In 
   6   6   3
Direct
  0.0000000000000000  0.0000000000000000  0.5716400000000000
  0.9999999999999997  0.9999999999999998  0.4283599999999999
  0.6666700000000000  0.3333300000000000  0.9049699999999999
  0.6666700000000000  0.3333300000000000  0.7616900000000000
  0.3333300000000000  0.6666700000000000  0.2383100000000000
  0.3333300000000000  0.6666700000000000  0.0950300000000000
  0.9999999999999997  0.9999999999999998  0.7895799999999999
  0.0000000000000000  0.0000000000000000  0.2104200000000000
  0.6666700000000000  0.3333300000000000  0.1229100000000000
  0.6666700000000000  0.3333300000000000  0.5437600000000000
  0.3333300000000000  0.6666700000000000  0.4562400000000000
  0.3333300000000000  0.6666700000000000  0.8770900000000000
  0.0000000000000000  0.0000000000000000  0.0000000000000000
  0.6666700000000000  0.3333300000000000  0.3333300000000000
  0.3333300000000000  0.6666700000000000  0.6666699999999999
