Re Te Bi 
 1.0000000000000000
     3.2709999999999999    0.0000000000000000    0.0000000000000000
    -1.6354999999999993    2.8327690957788989    0.0000000000000000
     0.0000000000000000    0.0000000000000000   25.4780000000000015
 Re  Te  Bi 
   6   6   3
Direct
  0.9999900000000000  0.0000100000000000  0.5962700000000000
  0.0000100000000000  0.9999899999999999  0.4037299999999999
  0.6666600000000000  0.3333400000000000  0.9296000000000000
  0.6666700000000000  0.3333300000000000  0.7370600000000000
  0.3333300000000000  0.6666700000000000  0.2629400000000000
  0.3333400000000000  0.6666600000000000  0.0704000000000000
  0.0000100000000000  0.9999899999999999  0.7855399999999999
  0.9999900000000000  0.0000100000000000  0.2144600000000000
  0.6666700000000000  0.3333300000000000  0.1188900000000000
  0.6666700000000000  0.3333300000000000  0.5477900000000000
  0.3333300000000000  0.6666700000000000  0.4522099999999999
  0.3333300000000000  0.6666700000000000  0.8811099999999997
  0.0000000000000000  0.0000000000000000  0.0000000000000000
  0.6666500000000000  0.3333500000000000  0.3333400000000000
  0.3333499999999999  0.6666499999999999  0.6666599999999999
