Re Bi Se 
 1.0000000000000000
     3.3435999999999999    0.0000000000000000    0.0000000000000000
    -1.6717999999999993    2.8956425400936490    0.0000000000000000
     0.0000000000000000    0.0000000000000000   11.5808999999999997
 Re  Bi  Se 
   4   2   2
Direct
  0.3332700000000000  0.6667300000000000  0.3487800000000000
  0.6667300000000000  0.3332700000000000  0.6512200000000000
  0.6667300000000000  0.3332700000000000  0.8487800000000000
  0.3332700000000000  0.6667300000000000  0.1512200000000000
  0.0000000000000000  0.0000000000000000  0.0000000000000000
  0.0000000000000000  0.0000000000000000  0.5000000000000000
  0.3333800000000000  0.6666200000000000  0.7500000000000000
  0.6666200000000000  0.3333800000000000  0.2500000000000000
