Ni Pt  C Se
 1.0000000000000000
     3.3029999999999999    0.0000000000000000    0.0000000000000000
    -1.6514999999999993    2.8604819087000011    0.0000000000000000
     0.0000000000000000    0.0000000000000000   25.8299999999999983
 Ni  Pt  C   Se
   3   6   3   6
Direct
  0.0000000000000000  0.0000000000000000  0.0000000000000000
  0.6666700000000000  0.3333300000000000  0.3333300000000001
  0.3333300000000000  0.6666700000000000  0.6666700000000001
  0.0000000000000000  0.0000000000000000  0.8791600000000002
  0.0000000000000000  0.0000000000000000  0.1208400000000000
  0.6666700000000000  0.3333300000000000  0.2124900000000000
  0.6666700000000000  0.3333300000000000  0.4541800000000000
  0.3333300000000000  0.6666700000000000  0.5458200000000000
  0.3333300000000000  0.6666700000000000  0.7875100000000000
  0.0000000000000000  0.0000000000000000  0.5000000000000000
  0.6666700000000000  0.3333300000000000  0.8333300000000000
  0.3333300000000000  0.6666700000000000  0.1666700000000000
  0.0000000000000000  0.0000000000000000  0.7288000000000001
  0.0000000000000000  0.0000000000000000  0.2712000000000000
  0.6666700000000000  0.3333300000000000  0.0621300000000000
  0.6666700000000000  0.3333300000000000  0.6045400000000000
  0.3333300000000000  0.6666700000000000  0.3954600000000000
  0.3333300000000000  0.6666700000000000  0.9378700000000000
