Co Hg  C  S
 1.0000000000000000
     3.3029999999999999    0.0000000000000000    0.0000000000000000
    -1.6514999999999991    2.8604819087000011    0.0000000000000000
     0.0000000000000000    0.0000000000000000   25.8299999999999983
 Co  Hg  C   S
   3   6   3   6
Direct
  0.0000000000000000  0.0000000000000000  0.0000000000000000
  0.6666700000000000  0.3333300000000000  0.3333300000000001
  0.3333300000000000  0.6666700000000000  0.6666700000000001
  0.0000000000000000  0.0000000000000000  0.8832700000000000
  0.0000000000000000  0.0000000000000000  0.1167300000000000
  0.6666700000000000  0.3333300000000000  0.2166100000000000
  0.6666700000000000  0.3333300000000000  0.4500600000000000
  0.3333300000000000  0.6666700000000000  0.5499400000000000
  0.3333300000000000  0.6666700000000000  0.7833900000000000
  0.0000000000000000  0.0000000000000000  0.5000000000000000
  0.6666700000000000  0.3333300000000000  0.8333300000000000
  0.3333300000000000  0.6666700000000000  0.1666700000000000
  0.0000100000000001  0.9999900000000002  0.7085700000000001
  0.9999899999999998  0.0000100000000000  0.2914300000000000
  0.6666700000000000  0.3333300000000000  0.0419000000000000
  0.6666600000000000  0.3333400000000000  0.6247700000000002
  0.3333400000000000  0.6666600000000000  0.3752300000000000
  0.3333300000000000  0.6666700000000000  0.9581000000000000
