Ti  S Pb 
 1.0000000000000000
     3.2709999999999999    0.0000000000000000    0.0000000000000000
    -1.6354999999999993    2.8327690957788989    0.0000000000000000
     0.0000000000000000    0.0000000000000000   25.4780000000000015
 Ti  S   Pb 
   6   6   3
Direct
  0.9999800000000000  0.0000200000000000  0.5676600000000001
  0.0000199999999999  0.9999799999999998  0.4323399999999999
  0.6667100000000000  0.3332900000000000  0.9010200000000000
  0.6666900000000000  0.3333099999999999  0.7656699999999999
  0.3333100000000000  0.6666900000000000  0.2343300000000000
  0.3332900000000000  0.6667100000000000  0.0989800000000000
  0.0000199999999999  0.9999799999999998  0.7883200000000000
  0.9999800000000000  0.0000200000000000  0.2116800000000000
  0.6666299999999999  0.3333700000000000  0.1216300000000000
  0.6666500000000000  0.3333500000000000  0.5450100000000000
  0.3333499999999999  0.6666499999999999  0.4549900000000000
  0.3333699999999999  0.6666299999999997  0.8783700000000000
  0.0000000000000000  0.0000000000000000  0.0000000000000000
  0.6666399999999999  0.3333600000000000  0.3333400000000000
  0.3333600000000000  0.6666399999999999  0.6666599999999999
