Na Rh  N Se 
 1.0000000000000000
     3.3029999999999999    0.0000000000000000    0.0000000000000000
    -1.6514999999999993    2.8604819087000011    0.0000000000000000
     0.0000000000000000    0.0000000000000000   25.8299999999999983
 Na  Rh  N   Se 
   3   6   3   6
Direct
  0.0000000000000000  0.0000000000000000  0.0000000000000000
  0.6666700000000000  0.3333300000000000  0.3333300000000001
  0.3333300000000000  0.6666700000000000  0.6666700000000001
  0.0000000000000000  0.0000000000000000  0.8745100000000000
  0.0000000000000000  0.0000000000000000  0.1254900000000000
  0.6666700000000000  0.3333300000000000  0.2077700000000000
  0.6666700000000000  0.3333300000000000  0.4588600000000001
  0.3333300000000000  0.6666700000000000  0.5411400000000000
  0.3333300000000000  0.6666700000000000  0.7922300000000001
  0.0000000000000000  0.0000000000000000  0.5000000000000000
  0.6666700000000000  0.3333300000000000  0.8334600000000000
  0.3333300000000000  0.6666700000000000  0.1665400000000000
  0.0000000000000000  0.0000000000000000  0.7472100000000000
  0.0000000000000000  0.0000000000000000  0.2527900000000000
  0.6666700000000000  0.3333300000000000  0.0804900000000000
  0.6666700000000000  0.3333300000000000  0.5861499999999999
  0.3333300000000000  0.6666700000000000  0.4138500000000000
  0.3333300000000000  0.6666700000000000  0.9195100000000000
