Ag Re  N  S 
 1.0000000000000000
     3.3029999999999999    0.0000000000000000    0.0000000000000000
    -1.6514999999999991    2.8604819087000011    0.0000000000000000
     0.0000000000000000    0.0000000000000000   25.8299999999999983
 Ag  Re  N   S  
   3   6   3   6
Direct
  0.0000000000000000  0.0000000000000000  0.0000000000000000
  0.3874400000000000  0.6125600000000000  0.3260100000000000
  0.6125600000000000  0.3874400000000001  0.6739900000000000
  0.2321699999999999  0.7678300000000000  0.8695800000000000
  0.7678300000000000  0.2321700000000000  0.1304200000000000
  0.5923800000000000  0.4076200000000000  0.2155100000000000
  0.7243600000000000  0.2756400000000000  0.4606500000000001
  0.2756400000000000  0.7243600000000000  0.5393500000000000
  0.4076200000000000  0.5923800000000000  0.7844900000000000
  0.0000000000000000  0.0000000000000000  0.5000000000000000
  0.7222499999999997  0.2777500000000000  0.8296400000000000
  0.2777499999999999  0.7222499999999999  0.1703600000000000
  0.0815000000000000  0.9185000000000000  0.7498900000000001
  0.9184999999999999  0.0815000000000000  0.2501100000000000
  0.4812800000000000  0.5187200000000000  0.0812700000000000
  0.6363200000000000  0.3636800000000000  0.5806500000000000
  0.3636800000000000  0.6363200000000000  0.4193500000000000
  0.5187200000000000  0.4812800000000000  0.9187300000000000
