Co Zr  N  S 
 1.0000000000000000
     3.3029999999999999    0.0000000000000000    0.0000000000000000
    -1.6514999999999991    2.8604819087000011    0.0000000000000000
     0.0000000000000000    0.0000000000000000   25.8299999999999983
 Co  Zr  N   S  
   3   6   3   6
Direct
  0.0000000000000000  0.0000000000000000  0.0000000000000000
  0.6666499999999999  0.3333500000000000  0.3333100000000000
  0.3333499999999999  0.6666500000000000  0.6666900000000001
  0.9999800000000000  0.0000200000000000  0.8616400000000000
  0.0000200000000001  0.9999800000000001  0.1383600000000000
  0.6666900000000000  0.3333100000000000  0.1950300000000000
  0.6666700000000000  0.3333300000000000  0.4716600000000000
  0.3333300000000000  0.6666700000000000  0.5283400000000000
  0.3333099999999999  0.6666900000000000  0.8049700000000000
  0.0000000000000000  0.0000000000000000  0.5000000000000000
  0.6666499999999999  0.3333500000000000  0.8333300000000000
  0.3333499999999999  0.6666500000000000  0.1666700000000000
  0.0000400000000001  0.9999600000000000  0.7145500000000000
  0.9999600000000000  0.0000400000000000  0.2854500000000000
  0.6666600000000000  0.3333400000000000  0.0478200000000000
  0.6666600000000000  0.3333400000000000  0.6188399999999999
  0.3333400000000000  0.6666600000000000  0.3811600000000001
  0.3333400000000000  0.6666600000000000  0.9521800000000000
