Au Se  N 
 1.0000000000000000
     3.2709999999999999    0.0000000000000000    0.0000000000000000
    -1.6354999999999991    2.8327690957788989    0.0000000000000000
     0.0000000000000000    0.0000000000000000   25.4780000000000015
 Au  Se  N  
   6   6   3
Direct
  0.9999999999999997  0.9999999999999998  0.6114100000000000
  0.0000000000000000  0.0000000000000000  0.3885900000000000
  0.6666600000000000  0.3333400000000000  0.9447400000000000
  0.6666700000000000  0.3333300000000000  0.7219300000000000
  0.3333300000000000  0.6666700000000000  0.2780700000000000
  0.3333400000000000  0.6666600000000000  0.0552600000000000
  0.9999999999999997  0.9999999999999998  0.7938800000000000
  0.0000000000000000  0.0000000000000000  0.2061200000000000
  0.6666700000000000  0.3333300000000000  0.1272100000000000
  0.6666700000000000  0.3333300000000000  0.5394600000000001
  0.3333300000000000  0.6666700000000000  0.4605399999999999
  0.3333300000000000  0.6666700000000000  0.8727900000000000
  0.0000000000000000  0.0000000000000000  0.0000000000000000
  0.6666700000000000  0.3333300000000000  0.3333400000000000
  0.3333300000000000  0.6666700000000000  0.6666599999999999
