Hf  S Pb 
 1.0000000000000000
     3.2709999999999999    0.0000000000000000    0.0000000000000000
    -1.6354999999999993    2.8327690957788989    0.0000000000000000
     0.0000000000000000    0.0000000000000000   25.4780000000000015
 Hf  S   Pb 
   6   6   3
Direct
  0.0000399999999999  0.9999599999999998  0.5487700000000000
  0.9999600000000000  0.0000400000000000  0.4512300000000000
  0.6667200000000000  0.3332800000000000  0.8820999999999998
  0.6667200000000000  0.3332800000000000  0.7845700000000000
  0.3332800000000000  0.6667200000000000  0.2154300000000000
  0.3332800000000000  0.6667200000000000  0.1179000000000000
  0.0000300000000000  0.9999700000000000  0.8228299999999997
  0.9999700000000000  0.0000300000000000  0.1771700000000000
  0.6665900000000000  0.3334099999999999  0.1561600000000000
  0.6666600000000000  0.3333400000000000  0.5105000000000000
  0.3333400000000000  0.6666600000000000  0.4895000000000000
  0.3334099999999999  0.6665899999999999  0.8438400000000000
  0.0000000000000000  0.0000000000000000  0.0000000000000000
  0.6669700000000000  0.3330299999999999  0.3333199999999999
  0.3330300000000000  0.6669700000000000  0.6666800000000001
