Ru Se  B 
 1.0000000000000000
     3.2690000000000001    0.0000000000000000    0.0000000000000000
    -1.6344999999999994    2.8310370449713305    0.0000000000000000
     0.0000000000000000    0.0000000000000000    8.5470000000000006
 Ru  Se  B  
   2   2   1
Direct
  0.5598000000000000  0.2799000000000000  0.8731000000000000
  0.4401999999999999  0.7201000000000000  0.1269000000000000
  0.6616300000000001  0.3308100000000000  0.2937500000000000
  0.3383700000000000  0.6691900000000001  0.7062499999999999
  0.0000000000000000  0.0000000000000000  0.0000000000000000
