Ca  V  C Se
 1.0000000000000000
     3.3029999999999999    0.0000000000000000    0.0000000000000000
    -1.6514999999999991    2.8604819087000011    0.0000000000000000
     0.0000000000000000    0.0000000000000000   25.8299999999999983
 Ca  V   C   Se
   3   6   3   6
Direct
  0.0000000000000000  0.0000000000000000  0.0000000000000000
  0.6666700000000000  0.3333300000000000  0.3333300000000001
  0.3333300000000000  0.6666700000000000  0.6666700000000001
  0.0000000000000000  0.0000000000000000  0.8664800000000000
  0.0000000000000000  0.0000000000000000  0.1335200000000000
  0.6666700000000000  0.3333300000000000  0.1998200000000000
  0.6666700000000000  0.3333300000000000  0.4668500000000000
  0.3333300000000000  0.6666700000000000  0.5331500000000000
  0.3333300000000000  0.6666700000000000  0.8001800000000000
  0.0000000000000000  0.0000000000000000  0.5000000000000000
  0.6666700000000000  0.3333300000000000  0.8333300000000000
  0.3333300000000000  0.6666700000000000  0.1666700000000000
  0.0000000000000000  0.0000000000000000  0.7384700000000000
  0.0000000000000000  0.0000000000000000  0.2615300000000000
  0.6666700000000000  0.3333300000000000  0.0718100000000000
  0.6666700000000000  0.3333300000000000  0.5948600000000001
  0.3333300000000000  0.6666700000000000  0.4051400000000000
  0.3333300000000000  0.6666700000000000  0.9281900000000000
