Cu Te  B 
 1.0000000000000000
     3.2709999999999999    0.0000000000000000    0.0000000000000000
    -1.6354999999999993    2.8327690957788989    0.0000000000000000
     0.0000000000000000    0.0000000000000000   25.4780000000000015
 Cu  Te  B  
   6   6   3
Direct
  0.9999999999999997  0.9999999999999998  0.6227400000000000
  0.0000000000000000  0.0000000000000000  0.3772599999999999
  0.6666600000000000  0.3333400000000000  0.9560800000000000
  0.6666600000000000  0.3333400000000000  0.7105899999999998
  0.3333400000000000  0.6666600000000000  0.2894100000000000
  0.3333400000000000  0.6666600000000000  0.0439200000000000
  0.0000100000000000  0.9999899999999999  0.7850300000000000
  0.9999900000000000  0.0000100000000000  0.2149700000000000
  0.6666800000000001  0.3333199999999999  0.1183700000000000
  0.6666900000000000  0.3333099999999999  0.5483000000000000
  0.3333100000000000  0.6666900000000000  0.4516999999999999
  0.3333199999999999  0.6666800000000001  0.8816299999999999
  0.0000000000000000  0.0000000000000000  0.0000000000000000
  0.6666900000000000  0.3333099999999999  0.3333300000000000
  0.3333100000000000  0.6666900000000000  0.6666699999999999
