Zn Au  C Se
 1.0000000000000000
     3.3029999999999999    0.0000000000000000    0.0000000000000000
    -1.6514999999999993    2.8604819087000011    0.0000000000000000
     0.0000000000000000    0.0000000000000000   25.8299999999999983
 Zn  Au  C   Se
   3   6   3   6
Direct
  0.0000000000000000  0.0000000000000000  0.0000000000000000
  0.6666700000000000  0.3333300000000000  0.3333300000000001
  0.3333300000000000  0.6666700000000000  0.6666700000000001
  0.0000000000000000  0.0000000000000000  0.8784700000000000
  0.0000000000000000  0.0000000000000000  0.1215300000000000
  0.6666700000000000  0.3333300000000000  0.2118100000000000
  0.6666700000000000  0.3333300000000000  0.4548600000000001
  0.3333300000000000  0.6666700000000000  0.5451400000000000
  0.3333300000000000  0.6666700000000000  0.7881899999999999
  0.0000000000000000  0.0000000000000000  0.5000000000000000
  0.6666700000000000  0.3333300000000000  0.8333300000000000
  0.3333300000000000  0.6666700000000000  0.1666700000000000
  0.0000000000000000  0.0000000000000000  0.7262600000000001
  0.0000000000000000  0.0000000000000000  0.2737400000000000
  0.6666700000000000  0.3333300000000000  0.0595900000000000
  0.6666700000000000  0.3333300000000000  0.6070700000000000
  0.3333300000000000  0.6666700000000000  0.3929300000000000
  0.3333300000000000  0.6666700000000000  0.9404100000000000
