Mo  S Bi 
 1.0000000000000000
     3.2690000000000001    0.0000000000000000    0.0000000000000000
    -1.6344999999999994    2.8310370449713305    0.0000000000000000
     0.0000000000000000    0.0000000000000000    8.5470000000000006
 Mo  S   Bi 
   2   2   1
Direct
  0.6659599999999998  0.3329800000000000  0.7402000000000000
  0.3340400000000001  0.6670200000000001  0.2598000000000000
  0.6672800000000000  0.3336400000000000  0.3424100000000000
  0.3327199999999999  0.6663600000000001  0.6575900000000000
  0.0000000000000000  0.0000000000000000  0.0000000000000000
