Ag Ir  C Te
 1.0000000000000000
     3.3029999999999999    0.0000000000000000    0.0000000000000000
    -1.6514999999999993    2.8604819087000011    0.0000000000000000
     0.0000000000000000    0.0000000000000000   25.8299999999999983
 Ag  Ir  C   Te
   3   6   3   6
Direct
  0.0000000000000000  0.0000000000000000  0.0000000000000000
  0.6666700000000000  0.3333300000000000  0.3333300000000001
  0.3333300000000000  0.6666700000000000  0.6666700000000001
  0.0000000000000000  0.0000000000000000  0.8729100000000000
  0.0000000000000000  0.0000000000000000  0.1270900000000000
  0.6666700000000000  0.3333300000000000  0.2062400000000000
  0.6666700000000000  0.3333300000000000  0.4604300000000001
  0.3333300000000000  0.6666700000000000  0.5395700000000000
  0.3333300000000000  0.6666700000000000  0.7937600000000000
  0.0000000000000000  0.0000000000000000  0.5000000000000000
  0.6666700000000000  0.3333300000000000  0.8333300000000000
  0.3333300000000000  0.6666700000000000  0.1666700000000000
  0.0000000000000000  0.0000000000000000  0.7387400000000001
  0.0000000000000000  0.0000000000000000  0.2612600000000000
  0.6666700000000000  0.3333300000000000  0.0720800000000000
  0.6666700000000000  0.3333300000000000  0.5945900000000000
  0.3333300000000000  0.6666700000000000  0.4054100000000000
  0.3333300000000000  0.6666700000000000  0.9279200000000000
