Zn  S As 
 1.0000000000000000
     3.2690000000000001    0.0000000000000000    0.0000000000000000
    -1.6344999999999994    2.8310370449713305    0.0000000000000000
     0.0000000000000000    0.0000000000000000    8.5470000000000006
 Zn  S   As 
   2   2   1
Direct
  0.9998500000000000  0.4999200000000000  0.7541000000000000
  0.0001500000000000  0.5000800000000000  0.2459000000000000
  0.6350399999999998  0.3175200000000001  0.4999900000000000
  0.3649600000000000  0.6824800000000001  0.5000100000000000
  0.0000000000000000  0.0000000000000000  0.0000000000000000
