Ca Pd  C Te
 1.0000000000000000
     3.3029999999999999    0.0000000000000000    0.0000000000000000
    -1.6514999999999993    2.8604819087000011    0.0000000000000000
     0.0000000000000000    0.0000000000000000   25.8299999999999983
 Ca  Pd  C   Te
   3   6   3   6
Direct
  0.0000000000000000  0.0000000000000000  0.0000000000000000
  0.6664200000000000  0.3335800000000000  0.3142000000000000
  0.3335800000000000  0.6664200000000000  0.6858000000000000
  0.0001000000000000  0.9999000000000000  0.8736200000000000
  0.9999000000000000  0.0001000000000000  0.1263800000000000
  0.6665499999999998  0.3334500000000000  0.2087500000000000
  0.6665000000000000  0.3335000000000000  0.4583500000000000
  0.3335000000000000  0.6665000000000000  0.5416500000000000
  0.3334500000000000  0.6665500000000000  0.7912500000000000
  0.0000000000000000  0.0000000000000000  0.5000000000000000
  0.6668400000000000  0.3331600000000000  0.8332000000000001
  0.3331600000000000  0.6668400000000000  0.1668000000000000
  0.0002300000000000  0.9997700000000000  0.7262100000000000
  0.9997700000000000  0.0002300000000000  0.2737900000000000
  0.6666999999999998  0.3333000000000000  0.0616700000000000
  0.6668100000000000  0.3331900000000000  0.6038800000000000
  0.3331900000000000  0.6668100000000000  0.3961200000000000
  0.3332999999999999  0.6667000000000000  0.9383300000000000
