Li Ag  S  N 
 1.0000000000000000
     3.3121000000000000    0.0000000000000000    0.0000000000000000
    -1.6560499999999994    2.8683627398744393    0.0000000000000000
     0.0000000000000000    0.0000000000000000    9.0113000000000003
 Li  Ag  S   N  
   2   2   2   1
Direct
  0.6666600000000003  0.3333300000000000  0.5717800000000000
  0.3333400000000000  0.6666700000000000  0.4282200000000000
  0.6666700000000001  0.3333300000000000  0.8631000000000000
  0.3333300000000001  0.6666700000000000  0.1369000000000000
  0.6666700000000001  0.3333300000000000  0.3142700000000000
  0.3333300000000001  0.6666700000000000  0.6857300000000000
  0.0000000000000000  0.0000000000000000  0.0000000000000000
