 Y Se  P 
 1.0000000000000000
     3.2690000000000001    0.0000000000000000    0.0000000000000000
    -1.6344999999999994    2.8310370449713305    0.0000000000000000
     0.0000000000000000    0.0000000000000000    8.5470000000000006
 Y   Se  P  
   2   2   1
Direct
  0.6666699999999999  0.3333400000000000  0.9001399999999999
  0.3333299999999999  0.6666600000000000  0.0998600000000000
  0.6664599999999998  0.3332300000000000  0.3471600000000000
  0.3335400000000001  0.6667700000000001  0.6528400000000000
  0.0000000000000000  0.0000000000000000  0.0000000000000000
