Na  Y  C Te
 1.0000000000000000
     3.3029999999999999    0.0000000000000000    0.0000000000000000
    -1.6514999999999993    2.8604819087000011    0.0000000000000000
     0.0000000000000000    0.0000000000000000   25.8299999999999983
 Na  Y   C   Te
   3   6   3   6
Direct
  0.0000000000000000  0.0000000000000000  0.0000000000000000
  0.6055899999999999  0.3944100000000000  0.3335800000000000
  0.3944099999999999  0.6055900000000000  0.6664200000000000
  0.9363699999999998  0.0636300000000000  0.8612800000000002
  0.0636300000000000  0.9363700000000000  0.1387200000000000
  0.7197900000000000  0.2802100000000000  0.1923900000000000
  0.6768499999999998  0.3231500000000000  0.4733200000000000
  0.3231499999999999  0.6768500000000000  0.5266800000000000
  0.2802100000000001  0.7197900000000002  0.8076100000000001
  0.0000000000000000  0.0000000000000000  0.5000000000000000
  0.6178399999999998  0.3821600000000000  0.8353500000000003
  0.3821599999999999  0.6178399999999999  0.1646500000000000
  0.0330000000000000  0.9670000000000000  0.7317900000000001
  0.9669999999999999  0.0330000000000000  0.2682100000000000
  0.6283600000000000  0.3716400000000000  0.0667900000000000
  0.7615799999999998  0.2384200000000000  0.5995700000000000
  0.2384200000000000  0.7615800000000001  0.4004300000000000
  0.3716400000000000  0.6283600000000000  0.9332100000000000
