 W Te Al 
 1.0000000000000000
     3.2690000000000001    0.0000000000000000    0.0000000000000000
    -1.6344999999999994    2.8310370449713305    0.0000000000000000
     0.0000000000000000    0.0000000000000000    8.5470000000000006
 W   Te  Al 
   2   2   1
Direct
  0.6633100000000000  0.3316600000000000  0.8665700000000000
  0.3366900000000000  0.6683400000000002  0.1334300000000000
  0.6439199999999999  0.3219600000000001  0.3174200000000000
  0.3560800000000000  0.6780400000000001  0.6825800000000000
  0.0000000000000000  0.0000000000000000  0.0000000000000000
