Li Ir  N  S 
 1.0000000000000000
     3.3029999999999999    0.0000000000000000    0.0000000000000000
    -1.6514999999999991    2.8604819087000011    0.0000000000000000
     0.0000000000000000    0.0000000000000000   25.8299999999999983
 Li  Ir  N   S  
   3   6   3   6
Direct
  0.0000000000000000  0.0000000000000000  0.0000000000000000
  0.6666700000000000  0.3333300000000000  0.3333400000000001
  0.3333300000000000  0.6666700000000000  0.6666600000000001
  0.0000000000000000  0.0000000000000000  0.8756000000000002
  0.0000000000000000  0.0000000000000000  0.1244000000000000
  0.6666700000000000  0.3333300000000000  0.2088400000000001
  0.6666700000000000  0.3333300000000000  0.4577800000000000
  0.3333300000000000  0.6666700000000000  0.5422200000000000
  0.3333300000000000  0.6666700000000000  0.7911600000000001
  0.0000000000000000  0.0000000000000000  0.5000000000000000
  0.6666700000000000  0.3333300000000000  0.8334600000000000
  0.3333300000000000  0.6666700000000000  0.1665400000000000
  0.0000000000000000  0.0000000000000000  0.7498000000000000
  0.0000000000000000  0.0000000000000000  0.2502000000000000
  0.6666700000000000  0.3333300000000000  0.0830700000000000
  0.6666700000000000  0.3333300000000000  0.5835600000000000
  0.3333300000000000  0.6666700000000000  0.4164400000000000
  0.3333300000000000  0.6666700000000000  0.9169300000000000
