 V  S  C 
 1.0000000000000000
     3.2709999999999999    0.0000000000000000    0.0000000000000000
    -1.6354999999999991    2.8327690957788989    0.0000000000000000
     0.0000000000000000    0.0000000000000000   25.4780000000000015
 V   S   C  
   6   6   3
Direct
  0.9999999999999997  0.9999999999999998  0.6253900000000000
  0.0000000000000000  0.0000000000000000  0.3746100000000000
  0.6666700000000000  0.3333300000000000  0.9587300000000000
  0.6666700000000000  0.3333300000000000  0.7079400000000000
  0.3333300000000000  0.6666700000000000  0.2920600000000000
  0.3333300000000000  0.6666700000000000  0.0412700000000000
  0.9999999999999997  0.9999999999999998  0.7669600000000000
  0.0000000000000000  0.0000000000000000  0.2330400000000000
  0.6666700000000000  0.3333300000000000  0.1002900000000000
  0.6666700000000000  0.3333300000000000  0.5663700000000000
  0.3333300000000000  0.6666700000000000  0.4336300000000000
  0.3333300000000000  0.6666700000000000  0.8997100000000000
  0.0000000000000000  0.0000000000000000  0.0000000000000000
  0.6666700000000000  0.3333300000000000  0.3333300000000000
  0.3333300000000000  0.6666700000000000  0.6666699999999999
