Cu Te In 
 1.0000000000000000
     3.2709999999999999    0.0000000000000000    0.0000000000000000
    -1.6354999999999993    2.8327690957788989    0.0000000000000000
     0.0000000000000000    0.0000000000000000   25.4780000000000015
 Cu  Te  In 
   6   6   3
Direct
  0.0405199999999999  0.9594799999999998  0.6123200000000000
  0.9594800000000000  0.0405200000000000  0.3876800000000000
  0.6720000000000000  0.3280000000000000  0.9339799999999999
  0.6839400000000000  0.3160600000000000  0.7459399999999999
  0.3160600000000000  0.6839399999999999  0.2540600000000000
  0.3280000000000000  0.6720000000000000  0.0660200000000000
  0.0306099999999999  0.9693899999999999  0.8080099999999999
  0.9693900000000000  0.0306100000000000  0.1919900000000000
  0.6818900000000000  0.3181100000000000  0.1280900000000000
  0.7416500000000000  0.2583500000000000  0.5438200000000000
  0.2583500000000000  0.7416499999999998  0.4561800000000000
  0.3181100000000000  0.6818900000000000  0.8719100000000000
  0.0000000000000000  0.0000000000000000  0.0000000000000000
  0.6405400000000000  0.3594600000000000  0.3211000000000000
  0.3594599999999999  0.6405399999999999  0.6788999999999999
