Sc Se Si 
 1.0000000000000000
     3.2690000000000001    0.0000000000000000    0.0000000000000000
    -1.6344999999999994    2.8310370449713305    0.0000000000000000
     0.0000000000000000    0.0000000000000000    8.5470000000000006
 Sc  Se  Si 
   2   2   1
Direct
  0.5219399999999998  0.2609700000000000  0.7454000000000000
  0.4780599999999999  0.7390300000000000  0.2546000000000000
  0.8116300000000000  0.4058200000000001  0.3356500000000000
  0.1883700000000000  0.5941800000000000  0.6643500000000000
  0.0000000000000000  0.0000000000000000  0.0000000000000000
