Cu Se Sb 
 1.0000000000000000
     3.2690000000000001    0.0000000000000000    0.0000000000000000
    -1.6344999999999994    2.8310370449713305    0.0000000000000000
     0.0000000000000000    0.0000000000000000    8.5470000000000006
 Cu  Se  Sb 
   2   2   1
Direct
  0.7132399999999998  0.3566200000000000  0.7666400000000000
  0.2867600000000000  0.6433800000000001  0.2333600000000000
  0.6231500000000000  0.3115700000000000  0.4446600000000000
  0.3768500000000000  0.6884300000000000  0.5553399999999999
  0.0000000000000000  0.0000000000000000  0.0000000000000000
