Ag Te Al 
 1.0000000000000000
     3.2709999999999999    0.0000000000000000    0.0000000000000000
    -1.6354999999999993    2.8327690957788989    0.0000000000000000
     0.0000000000000000    0.0000000000000000   25.4780000000000015
 Ag  Te  Al 
   6   6   3
Direct
  0.0105599999999999  0.9894399999999998  0.6181300000000000
  0.9894399999999999  0.0105600000000000  0.3818700000000000
  0.6627500000000000  0.3372499999999999  0.9400300000000000
  0.6801599999999999  0.3198400000000000  0.7393999999999999
  0.3198400000000000  0.6801599999999999  0.2606000000000000
  0.3372500000000000  0.6627500000000000  0.0599700000000000
  0.0233599999999999  0.9766399999999997  0.8084000000000000
  0.9766400000000000  0.0233600000000000  0.1916000000000000
  0.6877099999999999  0.3122900000000000  0.1290700000000000
  0.6921500000000000  0.3078500000000000  0.5421800000000000
  0.3078500000000000  0.6921499999999999  0.4578200000000000
  0.3122900000000000  0.6877099999999998  0.8709299999999999
  0.0000000000000000  0.0000000000000000  0.0000000000000000
  0.6594800000000000  0.3405199999999999  0.3226400000000000
  0.3405200000000000  0.6594800000000000  0.6773600000000000
