Rh Se Si 
 1.0000000000000000
     3.2690000000000001    0.0000000000000000    0.0000000000000000
    -1.6344999999999994    2.8310370449713305    0.0000000000000000
     0.0000000000000000    0.0000000000000000    8.5470000000000006
 Rh  Se  Si 
   2   2   1
Direct
  0.6666799999999998  0.3333400000000000  0.8675800000000000
  0.3333199999999999  0.6666600000000000  0.1324200000000000
  0.6666000000000000  0.3333000000000000  0.3240000000000000
  0.3334000000000000  0.6667000000000000  0.6760000000000000
  0.0000000000000000  0.0000000000000000  0.0000000000000000
