Ti Te Ge 
 1.0000000000000000
     3.2709999999999999    0.0000000000000000    0.0000000000000000
    -1.6354999999999993    2.8327690957788989    0.0000000000000000
     0.0000000000000000    0.0000000000000000   25.4780000000000015
 Ti  Te  Ge 
   6   6   3
Direct
  0.0971199999999999  0.9028799999999998  0.6373999999999997
  0.9028800000000000  0.0971200000000000  0.3626000000000000
  0.6665500000000000  0.3334500000000000  0.9697999999999999
  0.7629300000000000  0.2370700000000000  0.6973500000000000
  0.2370699999999999  0.7629300000000000  0.3026500000000000
  0.3334500000000000  0.6665500000000000  0.0302000000000000
  0.0311799999999999  0.9688199999999999  0.7727700000000000
  0.9688200000000000  0.0311800000000000  0.2272300000000000
  0.6671099999999999  0.3328900000000000  0.1002000000000000
  0.6780500000000000  0.3219500000000000  0.5630900000000000
  0.3219500000000000  0.6780499999999999  0.4369100000000000
  0.3328900000000000  0.6671100000000000  0.8998000000000000
  0.0000000000000000  0.0000000000000000  0.0000000000000000
  0.5744899999999999  0.4255099999999999  0.3330300000000000
  0.4255099999999999  0.5744899999999998  0.6669699999999998
