Pt  S Ge 
 1.0000000000000000
     3.2709999999999999    0.0000000000000000    0.0000000000000000
    -1.6354999999999993    2.8327690957788989    0.0000000000000000
     0.0000000000000000    0.0000000000000000   25.4780000000000015
 Pt  S   Ge 
   6   6   3
Direct
  0.9999999999999997  0.9999999999999998  0.5614000000000000
  0.0000000000000000  0.0000000000000000  0.4386000000000000
  0.6666800000000001  0.3333199999999999  0.8947400000000000
  0.6666600000000000  0.3333400000000000  0.7719399999999997
  0.3333400000000000  0.6666600000000000  0.2280600000000000
  0.3333199999999999  0.6666800000000001  0.1052600000000000
  0.9999999999999997  0.9999999999999998  0.8279500000000000
  0.0000000000000000  0.0000000000000000  0.1720500000000000
  0.6666700000000000  0.3333300000000000  0.1612800000000000
  0.6666700000000000  0.3333300000000000  0.5053900000000000
  0.3333300000000000  0.6666700000000000  0.4946099999999999
  0.3333300000000000  0.6666700000000000  0.8387199999999999
  0.0000000000000000  0.0000000000000000  0.0000000000000000
  0.6666700000000000  0.3333300000000000  0.3333400000000000
  0.3333300000000000  0.6666700000000000  0.6666599999999999
