Hg Te  P 
 1.0000000000000000
     3.2709999999999999    0.0000000000000000    0.0000000000000000
    -1.6354999999999993    2.8327690957788989    0.0000000000000000
     0.0000000000000000    0.0000000000000000   25.4780000000000015
 Hg  Te  P  
   6   6   3
Direct
  0.9999999999999997  0.9999999999999998  0.6101100000000000
  0.0000000000000000  0.0000000000000000  0.3898900000000000
  0.6666600000000000  0.3333400000000000  0.9434500000000000
  0.6666700000000000  0.3333300000000000  0.7232199999999998
  0.3333300000000000  0.6666700000000000  0.2767800000000000
  0.3333400000000000  0.6666600000000000  0.0565500000000000
  0.0000000000000000  0.0000000000000000  0.7950700000000001
  0.9999999999999997  0.9999999999999998  0.2049300000000000
  0.6666600000000000  0.3333400000000000  0.1284100000000000
  0.6666600000000000  0.3333400000000000  0.5382600000000000
  0.3333400000000000  0.6666600000000000  0.4617400000000000
  0.3333400000000000  0.6666600000000000  0.8715900000000000
  0.0000000000000000  0.0000000000000000  0.0000000000000000
  0.6666700000000000  0.3333300000000000  0.3333300000000000
  0.3333300000000000  0.6666700000000000  0.6666699999999999
