Os Te Pb 
 1.0000000000000000
     3.2709999999999999    0.0000000000000000    0.0000000000000000
    -1.6354999999999993    2.8327690957788989    0.0000000000000000
     0.0000000000000000    0.0000000000000000   25.4780000000000015
 Os  Te  Pb 
   6   6   3
Direct
  0.9999999999999997  0.9999999999999998  0.5937600000000000
  0.0000000000000000  0.0000000000000000  0.4062400000000000
  0.6666700000000000  0.3333300000000000  0.9271000000000000
  0.6666700000000000  0.3333300000000000  0.7395699999999999
  0.3333300000000000  0.6666700000000000  0.2604300000000000
  0.3333300000000000  0.6666700000000000  0.0729000000000000
  0.0000000000000000  0.0000000000000000  0.7911999999999998
  0.9999999999999997  0.9999999999999998  0.2088000000000000
  0.6666700000000000  0.3333300000000000  0.1245300000000000
  0.6666700000000000  0.3333300000000000  0.5421400000000000
  0.3333300000000000  0.6666700000000000  0.4578599999999999
  0.3333300000000000  0.6666700000000000  0.8754700000000000
  0.0000000000000000  0.0000000000000000  0.0000000000000000
  0.6666600000000000  0.3333400000000000  0.3333300000000000
  0.3333400000000000  0.6666600000000000  0.6666699999999999
