Fe Te  B 
 1.0000000000000000
     3.2690000000000001    0.0000000000000000    0.0000000000000000
    -1.6344999999999994    2.8310370449713305    0.0000000000000000
     0.0000000000000000    0.0000000000000000    8.5470000000000006
 Fe  Te  B  
   2   2   1
Direct
  0.5543900000000000  0.2772000000000001  0.8878800000000000
  0.4456099999999999  0.7228000000000000  0.1121200000000000
  0.4657899999999999  0.2328900000000001  0.2951700000000000
  0.5342099999999999  0.7671100000000002  0.7048299999999998
  0.0000000000000000  0.0000000000000000  0.0000000000000000
