Cu  S  P 
 1.0000000000000000
     3.2709999999999999    0.0000000000000000    0.0000000000000000
    -1.6354999999999993    2.8327690957788989    0.0000000000000000
     0.0000000000000000    0.0000000000000000   25.4780000000000015
 Cu  S   P  
   6   6   3
Direct
  0.0000000000000000  0.0000000000000000  0.6061700000000000
  0.9999999999999997  0.9999999999999998  0.3938300000000000
  0.6666700000000000  0.3333300000000000  0.9394999999999999
  0.6666600000000000  0.3333400000000000  0.7271600000000000
  0.3333400000000000  0.6666600000000000  0.2728400000000000
  0.3333300000000000  0.6666700000000000  0.0605000000000000
  0.0000199999999999  0.9999799999999998  0.7887199999999999
  0.9999800000000000  0.0000200000000000  0.2112800000000000
  0.6666800000000001  0.3333199999999999  0.1220500000000000
  0.6667000000000000  0.3333000000000000  0.5446200000000000
  0.3332999999999999  0.6667000000000000  0.4553800000000000
  0.3333199999999999  0.6666800000000001  0.8779500000000000
  0.0000000000000000  0.0000000000000000  0.0000000000000000
  0.6667000000000000  0.3333000000000000  0.3333300000000000
  0.3332999999999999  0.6667000000000000  0.6666699999999999
