Au Se As 
 1.0000000000000000
     3.2690000000000001    0.0000000000000000    0.0000000000000000
    -1.6344999999999994    2.8310370449713305    0.0000000000000000
     0.0000000000000000    0.0000000000000000    8.5470000000000006
 Au  Se  As 
   2   2   1
Direct
  0.6908799999999999  0.3454400000000000  0.7889600000000000
  0.3091200000000000  0.6545600000000000  0.2110400000000000
  0.6327099999999998  0.3163500000000000  0.4369000000000000
  0.3672899999999999  0.6836500000000001  0.5631000000000000
  0.0000000000000000  0.0000000000000000  0.0000000000000000
