Ru  S Ge 
 1.0000000000000000
     3.2709999999999999    0.0000000000000000    0.0000000000000000
    -1.6354999999999993    2.8327690957788989    0.0000000000000000
     0.0000000000000000    0.0000000000000000   25.4780000000000015
 Ru  S   Ge 
   6   6   3
Direct
  0.8006799999999999  0.1993200000000000  0.5797400000000000
  0.1993199999999998  0.8006799999999997  0.4202600000000000
  0.7777300000000000  0.2222700000000000  0.9216699999999999
  0.6891600000000000  0.3108399999999999  0.7391699999999998
  0.3108399999999999  0.6891600000000000  0.2608300000000000
  0.2222700000000000  0.7777299999999999  0.0783300000000000
  0.0210800000000000  0.9789200000000000  0.7735800000000000
  0.9789200000000000  0.0210800000000000  0.2264200000000000
  0.5692699999999999  0.4307299999999999  0.1176800000000000
  0.4932000000000000  0.5068000000000000  0.5348100000000000
  0.5067999999999998  0.4931999999999999  0.4651899999999999
  0.4307299999999999  0.5692699999999999  0.8823200000000000
  0.0000000000000000  0.0000000000000000  0.0000000000000000
  0.7594199999999999  0.2405800000000000  0.3575200000000000
  0.2405799999999999  0.7594200000000000  0.6424800000000001
