Li Rh  N  S 
 1.0000000000000000
     3.3029999999999999    0.0000000000000000    0.0000000000000000
    -1.6514999999999991    2.8604819087000011    0.0000000000000000
     0.0000000000000000    0.0000000000000000   25.8299999999999983
 Li  Rh  N   S  
   3   6   3   6
Direct
  0.0000000000000000  0.0000000000000000  0.0000000000000000
  0.6666700000000000  0.3333300000000000  0.3333400000000001
  0.3333300000000000  0.6666700000000000  0.6666600000000001
  0.9999699999999998  0.0000300000000000  0.8755700000000000
  0.0000300000000000  0.9999700000000000  0.1244300000000000
  0.6666999999999998  0.3333000000000000  0.2087800000000000
  0.6666700000000000  0.3333300000000000  0.4578300000000000
  0.3333300000000000  0.6666700000000000  0.5421700000000000
  0.3332999999999999  0.6667000000000000  0.7912200000000000
  0.0000000000000000  0.0000000000000000  0.5000000000000000
  0.6667100000000000  0.3332900000000000  0.8335200000000000
  0.3332900000000000  0.6667100000000000  0.1664800000000000
  0.0000000000000000  0.0000000000000000  0.7494800000000000
  0.0000000000000000  0.0000000000000000  0.2505200000000000
  0.6666600000000000  0.3333400000000000  0.0827300000000000
  0.6666700000000000  0.3333300000000000  0.5839000000000000
  0.3333300000000000  0.6666700000000000  0.4161000000000001
  0.3333400000000000  0.6666600000000000  0.9172700000000000
