Co Rh  N  S 
 1.0000000000000000
     3.3029999999999999    0.0000000000000000    0.0000000000000000
    -1.6514999999999991    2.8604819087000011    0.0000000000000000
     0.0000000000000000    0.0000000000000000   25.8299999999999983
 Co  Rh  N   S  
   3   6   3   6
Direct
  0.0000000000000000  0.0000000000000000  0.0000000000000000
  0.6664399999999999  0.3335600000000000  0.2866600000000000
  0.3335600000000000  0.6664400000000000  0.7133400000000000
  0.9998399999999997  0.0001600000000000  0.9013100000000001
  0.0001600000000000  0.9998400000000000  0.0986900000000000
  0.6663899999999998  0.3336100000000000  0.1981700000000000
  0.6666600000000000  0.3333400000000000  0.4563200000000000
  0.3333400000000000  0.6666600000000000  0.5436800000000001
  0.3336099999999999  0.6663900000000000  0.8018300000000000
  0.0000000000000000  0.0000000000000000  0.5000000000000000
  0.6665000000000000  0.3335000000000000  0.8682400000000001
  0.3335000000000000  0.6665000000000000  0.1317600000000000
  0.0000800000000000  0.9999200000000000  0.7539100000000000
  0.9999200000000000  0.0000800000000000  0.2460900000000000
  0.6668200000000000  0.3331800000000000  0.0525500000000000
  0.6666700000000000  0.3333300000000000  0.5851000000000000
  0.3333300000000000  0.6666700000000000  0.4149000000000000
  0.3331800000000000  0.6668200000000000  0.9474500000000000
