Zn Au  C  S
 1.0000000000000000
     3.3029999999999999    0.0000000000000000    0.0000000000000000
    -1.6514999999999991    2.8604819087000011    0.0000000000000000
     0.0000000000000000    0.0000000000000000   25.8299999999999983
 Zn  Au  C   S
   3   6   3   6
Direct
  0.0000000000000000  0.0000000000000000  0.0000000000000000
  0.6666700000000000  0.3333300000000000  0.3333300000000001
  0.3333300000000000  0.6666700000000000  0.6666700000000001
  0.0000000000000000  0.0000000000000000  0.8803700000000000
  0.0000000000000000  0.0000000000000000  0.1196300000000000
  0.6666700000000000  0.3333300000000000  0.2137000000000000
  0.6666700000000000  0.3333300000000000  0.4529700000000000
  0.3333300000000000  0.6666700000000000  0.5470300000000000
  0.3333300000000000  0.6666700000000000  0.7863000000000001
  0.0000000000000000  0.0000000000000000  0.5000000000000000
  0.6666700000000000  0.3333300000000000  0.8333400000000000
  0.3333300000000000  0.6666700000000000  0.1666600000000000
  0.0000000000000000  0.0000000000000000  0.7211800000000000
  0.0000000000000000  0.0000000000000000  0.2788200000000000
  0.6666700000000000  0.3333300000000000  0.0545100000000000
  0.6666700000000000  0.3333300000000000  0.6121600000000000
  0.3333300000000000  0.6666700000000000  0.3878400000000000
  0.3333300000000000  0.6666700000000000  0.9454900000000003
