Re Se  C 
 1.0000000000000000
     3.2709999999999999    0.0000000000000000    0.0000000000000000
    -1.6354999999999991    2.8327690957788989    0.0000000000000000
     0.0000000000000000    0.0000000000000000   25.4780000000000015
 Re  Se  C  
   6   6   3
Direct
  0.9999999999999997  0.9999999999999998  0.6286600000000000
  0.0000000000000000  0.0000000000000000  0.3713400000000000
  0.6666700000000000  0.3333300000000000  0.9619999999999997
  0.6666700000000000  0.3333300000000000  0.7046700000000000
  0.3333300000000000  0.6666700000000000  0.2953300000000000
  0.3333300000000000  0.6666700000000000  0.0380000000000000
  0.9999999999999997  0.9999999999999998  0.7739900000000000
  0.0000000000000000  0.0000000000000000  0.2260100000000000
  0.6666700000000000  0.3333300000000000  0.1073300000000000
  0.6666700000000000  0.3333300000000000  0.5593399999999999
  0.3333300000000000  0.6666700000000000  0.4406600000000000
  0.3333300000000000  0.6666700000000000  0.8926699999999999
  0.0000000000000000  0.0000000000000000  0.0000000000000000
  0.6666700000000000  0.3333300000000000  0.3333300000000000
  0.3333300000000000  0.6666700000000000  0.6666699999999999
