Pd Se Al 
 1.0000000000000000
     3.2690000000000001    0.0000000000000000    0.0000000000000000
    -1.6344999999999994    2.8310370449713305    0.0000000000000000
     0.0000000000000000    0.0000000000000000    8.5470000000000006
 Pd  Se  Al 
   2   2   1
Direct
  0.6665100000000000  0.3332600000000000  0.8505700000000000
  0.3334899999999999  0.6667400000000000  0.1494300000000000
  0.6662900000000000  0.3331500000000000  0.3808500000000000
  0.3337100000000000  0.6668500000000001  0.6191500000000000
  0.0000000000000000  0.0000000000000000  0.0000000000000000
