Mn Ir  C  S
 1.0000000000000000
     3.3029999999999999    0.0000000000000000    0.0000000000000000
    -1.6514999999999991    2.8604819087000011    0.0000000000000000
     0.0000000000000000    0.0000000000000000   25.8299999999999983
 Mn  Ir  C   S
   3   6   3   6
Direct
  0.0000000000000000  0.0000000000000000  0.0000000000000000
  0.6666700000000000  0.3333300000000000  0.3333300000000001
  0.3333300000000000  0.6666700000000000  0.6666700000000001
  0.0000000000000000  0.0000000000000000  0.8719700000000000
  0.0000000000000000  0.0000000000000000  0.1280300000000000
  0.6666700000000000  0.3333300000000000  0.2053000000000000
  0.6666700000000000  0.3333300000000000  0.4613700000000000
  0.3333300000000000  0.6666700000000000  0.5386300000000001
  0.3333300000000000  0.6666700000000000  0.7947000000000000
  0.0000000000000000  0.0000000000000000  0.5000000000000000
  0.6666700000000000  0.3333300000000000  0.8333300000000000
  0.3333300000000000  0.6666700000000000  0.1666700000000000
  0.0000100000000001  0.9999900000000002  0.7186700000000003
  0.9999899999999998  0.0000100000000000  0.2813300000000000
  0.6666800000000001  0.3333200000000000  0.0520100000000000
  0.6666600000000000  0.3333400000000000  0.6146500000000000
  0.3333400000000000  0.6666600000000000  0.3853500000000001
  0.3333200000000000  0.6666800000000001  0.9479900000000000
