Au Se Pb 
 1.0000000000000000
     3.2709999999999999    0.0000000000000000    0.0000000000000000
    -1.6354999999999993    2.8327690957788989    0.0000000000000000
     0.0000000000000000    0.0000000000000000   25.4780000000000015
 Au  Se  Pb 
   6   6   3
Direct
  0.0231699999999999  0.9768299999999998  0.5886200000000000
  0.9768300000000000  0.0231700000000000  0.4113800000000000
  0.6620900000000000  0.3379100000000000  0.9223799999999999
  0.6783100000000000  0.3216900000000000  0.7456400000000000
  0.3216899999999999  0.6783099999999999  0.2543600000000000
  0.3379099999999999  0.6620899999999998  0.0776200000000000
  0.0240999999999998  0.9758999999999998  0.8148399999999998
  0.9759000000000000  0.0241000000000000  0.1851600000000000
  0.6825599999999999  0.3174399999999999  0.1469000000000000
  0.6888800000000000  0.3111200000000000  0.5189600000000000
  0.3111200000000000  0.6888799999999999  0.4810400000000000
  0.3174399999999999  0.6825599999999998  0.8530999999999999
  0.0000000000000000  0.0000000000000000  0.0000000000000000
  0.6638800000000000  0.3361200000000000  0.3322800000000000
  0.3361199999999999  0.6638799999999999  0.6677200000000000
