Cd Te  N 
 1.0000000000000000
     3.2709999999999999    0.0000000000000000    0.0000000000000000
    -1.6354999999999991    2.8327690957788989    0.0000000000000000
     0.0000000000000000    0.0000000000000000   25.4780000000000015
 Cd  Te  N  
   6   6   3
Direct
  0.0000000000000000  0.0000000000000000  0.6224700000000000
  0.9999999999999997  0.9999999999999998  0.3775300000000000
  0.6666700000000000  0.3333300000000000  0.9558100000000000
  0.6666700000000000  0.3333300000000000  0.7108599999999999
  0.3333300000000000  0.6666700000000000  0.2891400000000000
  0.3333300000000000  0.6666700000000000  0.0441900000000000
  0.9999999999999997  0.9999999999999998  0.7892300000000000
  0.0000000000000000  0.0000000000000000  0.2107700000000000
  0.6666700000000000  0.3333300000000000  0.1225600000000000
  0.6666700000000000  0.3333300000000000  0.5441000000000000
  0.3333300000000000  0.6666700000000000  0.4559000000000000
  0.3333300000000000  0.6666700000000000  0.8774399999999999
  0.0000000000000000  0.0000000000000000  0.0000000000000000
  0.6666700000000000  0.3333300000000000  0.3333300000000000
  0.3333300000000000  0.6666700000000000  0.6666699999999999
