Ni  V  N Se 
 1.0000000000000000
     3.3029999999999999    0.0000000000000000    0.0000000000000000
    -1.6514999999999991    2.8604819087000011    0.0000000000000000
     0.0000000000000000    0.0000000000000000   25.8299999999999983
 Ni  V   N   Se 
   3   6   3   6
Direct
  0.0000000000000000  0.0000000000000000  0.0000000000000000
  0.8398299999999999  0.1601700000000000  0.3649600000000000
  0.1601700000000000  0.8398300000000000  0.6350400000000000
  0.1760200000000000  0.8239800000000002  0.8267500000000001
  0.8239799999999999  0.1760200000000000  0.1732500000000000
  0.4913300000000000  0.5086700000000000  0.2264700000000000
  0.6712299999999999  0.3287700000000000  0.4736200000000000
  0.3287700000000000  0.6712300000000000  0.5263800000000000
  0.5086700000000001  0.4913300000000000  0.7735300000000001
  0.0000000000000000  0.0000000000000000  0.5000000000000000
  0.8426799999999999  0.1573200000000000  0.8198400000000000
  0.1573200000000000  0.8426800000000000  0.1801600000000000
  0.1756400000000000  0.8243600000000000  0.7285700000000002
  0.8243600000000000  0.1756400000000000  0.2714300000000000
  0.5010700000000000  0.4989300000000000  0.0568000000000000
  0.6359600000000000  0.3640400000000000  0.5788900000000000
  0.3640400000000000  0.6359600000000000  0.4211100000000000
  0.4989300000000000  0.5010700000000000  0.9432000000000001
