Cd Se Bi 
 1.0000000000000000
     3.2690000000000001    0.0000000000000000    0.0000000000000000
    -1.6344999999999994    2.8310370449713305    0.0000000000000000
     0.0000000000000000    0.0000000000000000    8.5470000000000006
 Cd  Se  Bi 
   2   2   1
Direct
  0.7240400000000000  0.3620200000000001  0.7443000000000000
  0.2759600000000000  0.6379800000000000  0.2557000000000000
  0.6193300000000000  0.3096700000000000  0.4471600000000000
  0.3806700000000000  0.6903300000000000  0.5528400000000000
  0.0000000000000000  0.0000000000000000  0.0000000000000000
