Re Se Ge 
 1.0000000000000000
     3.2709999999999999    0.0000000000000000    0.0000000000000000
    -1.6354999999999993    2.8327690957788989    0.0000000000000000
     0.0000000000000000    0.0000000000000000   25.4780000000000015
 Re  Se  Ge 
   6   6   3
Direct
  0.9999999999999997  0.9999999999999998  0.6200500000000000
  0.0000000000000000  0.0000000000000000  0.3799500000000000
  0.6666700000000000  0.3333300000000000  0.9533900000000000
  0.6666700000000000  0.3333300000000000  0.7132800000000000
  0.3333300000000000  0.6666700000000000  0.2867200000000000
  0.3333300000000000  0.6666700000000000  0.0466100000000000
  0.9999999999999997  0.9999999999999998  0.7744900000000000
  0.0000000000000000  0.0000000000000000  0.2255100000000000
  0.6666700000000000  0.3333300000000000  0.1078300000000000
  0.6666700000000000  0.3333300000000000  0.5588400000000000
  0.3333300000000000  0.6666700000000000  0.4411600000000000
  0.3333300000000000  0.6666700000000000  0.8921700000000000
  0.0000000000000000  0.0000000000000000  0.0000000000000000
  0.6666700000000000  0.3333300000000000  0.3333300000000000
  0.3333300000000000  0.6666700000000000  0.6666699999999999
