Mn Re  C Te
 1.0000000000000000
     3.3029999999999999    0.0000000000000000    0.0000000000000000
    -1.6514999999999993    2.8604819087000011    0.0000000000000000
     0.0000000000000000    0.0000000000000000   25.8299999999999983
 Mn  Re  C   Te
   3   6   3   6
Direct
  0.0000000000000000  0.0000000000000000  0.0000000000000000
  0.8903200000000000  0.1096800000000000  0.3243800000000001
  0.1096800000000000  0.8903200000000000  0.6756200000000000
  0.0010100000000000  0.9989900000000000  0.8886800000000001
  0.9989900000000000  0.0010100000000000  0.1113200000000000
  0.6758999999999999  0.3241000000000000  0.1813300000000000
  0.6243599999999999  0.3756400000000000  0.4610400000000000
  0.3756400000000000  0.6243600000000000  0.5389600000000000
  0.3241000000000000  0.6758999999999999  0.8186700000000000
  0.0000000000000000  0.0000000000000000  0.5000000000000000
  0.6583300000000000  0.3416700000000000  0.8307099999999999
  0.3416700000000000  0.6583300000000000  0.1692900000000000
  0.7818499999999999  0.2181500000000000  0.7177500000000000
  0.2181500000000000  0.7818500000000000  0.2822500000000000
  0.6650600000000000  0.3349400000000000  0.0549500000000000
  0.6644600000000001  0.3355400000000000  0.6003100000000000
  0.3355399999999999  0.6644600000000001  0.3996900000000000
  0.3349400000000000  0.6650600000000000  0.9450499999999999
