Cu  W  C Te
 1.0000000000000000
     3.3029999999999999    0.0000000000000000    0.0000000000000000
    -1.6514999999999993    2.8604819087000011    0.0000000000000000
     0.0000000000000000    0.0000000000000000   25.8299999999999983
 Cu  W   C   Te
   3   6   3   6
Direct
  0.0000000000000000  0.0000000000000000  0.0000000000000000
  0.6795000000000000  0.3205000000000000  0.3361900000000000
  0.3205000000000000  0.6795000000000000  0.6638100000000000
  0.0415800000000000  0.9584200000000000  0.8681500000000000
  0.9584200000000000  0.0415800000000000  0.1318500000000000
  0.6359200000000000  0.3640800000000001  0.1939900000000000
  0.6670700000000001  0.3329300000000000  0.4719300000000000
  0.3329300000000000  0.6670700000000001  0.5280700000000000
  0.3640800000000000  0.6359200000000000  0.8060100000000000
  0.0000000000000000  0.0000000000000000  0.5000000000000000
  0.6960699999999997  0.3039300000000000  0.8134700000000001
  0.3039300000000000  0.6960700000000000  0.1865300000000000
  0.8646399999999999  0.1353600000000000  0.7365900000000000
  0.1353600000000000  0.8646400000000000  0.2634100000000000
  0.6206199999999999  0.3793800000000000  0.0758800000000000
  0.6655500000000000  0.3344500000000000  0.5938300000000000
  0.3344500000000000  0.6655500000000000  0.4061700000000000
  0.3793799999999999  0.6206199999999999  0.9241200000000001
