 V Cd  C Te
 1.0000000000000000
     3.3029999999999999    0.0000000000000000    0.0000000000000000
    -1.6514999999999993    2.8604819087000011    0.0000000000000000
     0.0000000000000000    0.0000000000000000   25.8299999999999983
 V   Cd  C   Te
   3   6   3   6
Direct
  0.0000000000000000  0.0000000000000000  0.0000000000000000
  0.8054399999999999  0.1945600000000000  0.3184200000000000
  0.1945600000000000  0.8054400000000000  0.6815800000000000
  0.0160600000000000  0.9839400000000001  0.8737300000000001
  0.9839399999999998  0.0160600000000000  0.1262700000000000
  0.7595599999999998  0.2404400000000000  0.2168500000000000
  0.6584699999999998  0.3415300000000000  0.4538900000000000
  0.3415300000000000  0.6584700000000000  0.5461100000000000
  0.2404400000000000  0.7595600000000000  0.7831500000000001
  0.0000000000000000  0.0000000000000000  0.5000000000000000
  0.7143000000000000  0.2857000000000000  0.8263100000000002
  0.2857000000000001  0.7143000000000002  0.1736900000000000
  0.8741500000000000  0.1258500000000000  0.7121300000000000
  0.1258500000000000  0.8741500000000001  0.2878700000000000
  0.6665699999999999  0.3334300000000000  0.0516000000000000
  0.6720699999999999  0.3279300000000000  0.6194900000000001
  0.3279300000000000  0.6720699999999999  0.3805100000000001
  0.3334300000000000  0.6665700000000000  0.9484000000000000
