Ni  S  N 
 1.0000000000000000
     3.3121000000000000    0.0000000000000000    0.0000000000000000
    -1.6560499999999994    2.8683627398744393    0.0000000000000000
     0.0000000000000000    0.0000000000000000    9.0113000000000003
 Ni  S   N  
   4   2   1
Direct
  0.6666900000000002  0.3333400000000000  0.5938099999999999
  0.3333100000000000  0.6666600000000000  0.4061900000000000
  0.6666000000000002  0.3333000000000000  0.8918199999999999
  0.3334000000000000  0.6667000000000000  0.1081800000000000
  0.6666500000000000  0.3333300000000000  0.2834600000000000
  0.3333500000000000  0.6666700000000000  0.7165400000000000
  0.0000000000000000  0.0000000000000000  0.0000000000000000
