Ca Ir  C Se
 1.0000000000000000
     3.3029999999999999    0.0000000000000000    0.0000000000000000
    -1.6514999999999993    2.8604819087000011    0.0000000000000000
     0.0000000000000000    0.0000000000000000   25.8299999999999983
 Ca  Ir  C   Se
   3   6   3   6
Direct
  0.0000000000000000  0.0000000000000000  0.0000000000000000
  0.5310000000000000  0.4690000000000000  0.3061100000000000
  0.4689999999999999  0.5310000000000000  0.6938900000000000
  0.9805600000000000  0.0194400000000000  0.8951700000000002
  0.0194400000000000  0.9805600000000000  0.1048300000000000
  0.5142400000000000  0.4857600000000000  0.1909900000000000
  0.6397600000000000  0.3602400000000000  0.4589900000000000
  0.3602399999999999  0.6397600000000000  0.5410100000000000
  0.4857600000000000  0.5142400000000000  0.8090100000000000
  0.0000000000000000  0.0000000000000000  0.5000000000000000
  0.8159799999999999  0.1840200000000000  0.8291300000000000
  0.1840200000000000  0.8159800000000000  0.1708700000000000
  0.1359899999999999  0.8640099999999999  0.7240400000000000
  0.8640099999999999  0.1359900000000000  0.2759600000000000
  0.6725799999999998  0.3274200000000000  0.0509500000000000
  0.7082200000000000  0.2917800000000000  0.5929300000000000
  0.2917800000000000  0.7082200000000000  0.4070700000000000
  0.3274199999999999  0.6725800000000000  0.9490499999999999
