Ni Au Te  N 
 1.0000000000000000
     3.3121000000000000    0.0000000000000000    0.0000000000000000
    -1.6560499999999994    2.8683627398744393    0.0000000000000000
     0.0000000000000000    0.0000000000000000    9.0113000000000003
 Ni  Au  Te  N  
   2   2   2   1
Direct
  0.6666700000000001  0.3333300000000000  0.5659800000000000
  0.3333300000000001  0.6666700000000000  0.4340200000000000
  0.6666700000000001  0.3333300000000000  0.8812800000000001
  0.3333300000000001  0.6666700000000000  0.1187200000000000
  0.6666700000000001  0.3333300000000000  0.2995900000000000
  0.3333300000000001  0.6666700000000000  0.7004100000000000
  0.0000000000000000  0.0000000000000000  0.0000000000000000
