 V Al  S 
 1.0000000000000000
     3.3435999999999999    0.0000000000000000    0.0000000000000000
    -1.6717999999999993    2.8956425400936490    0.0000000000000000
     0.0000000000000000    0.0000000000000000   11.5808999999999997
 V   Al  S  
   4   2   2
Direct
  0.3333900000000000  0.6666100000000000  0.3336900000000000
  0.6666100000000000  0.3333900000000000  0.6663100000000000
  0.6666100000000000  0.3333900000000000  0.8337000000000000
  0.3333900000000000  0.6666100000000000  0.1663000000000000
  0.0000000000000000  0.0000000000000000  0.0000000000000000
  0.0000000000000000  0.0000000000000000  0.5000000000000000
  0.3334100000000000  0.6665900000000000  0.7500000000000000
  0.6665900000000000  0.3334100000000000  0.2500000000000000
