Cu  S Ge 
 1.0000000000000000
     3.2709999999999999    0.0000000000000000    0.0000000000000000
    -1.6354999999999993    2.8327690957788989    0.0000000000000000
     0.0000000000000000    0.0000000000000000   25.4780000000000015
 Cu  S   Ge 
   6   6   3
Direct
  0.9485700000000000  0.0514300000000000  0.5743600000000000
  0.0514299999999999  0.9485699999999999  0.4256400000000000
  0.5234399999999999  0.4765599999999999  0.9053600000000001
  0.5349100000000000  0.4650899999999999  0.7638700000000000
  0.4650899999999999  0.5349100000000000  0.2361300000000000
  0.4765600000000000  0.5234400000000000  0.0946400000000000
  0.8765099999999999  0.1234900000000000  0.8341700000000000
  0.1234900000000000  0.8765100000000000  0.1658300000000000
  0.8221900000000000  0.1778100000000000  0.1652000000000000
  0.6853199999999999  0.3146800000000000  0.4991900000000000
  0.3146800000000000  0.6853200000000000  0.5008100000000000
  0.1778100000000000  0.8221900000000000  0.8348000000000000
  0.0000000000000000  0.0000000000000000  0.0000000000000000
  0.9134000000000000  0.0866000000000000  0.3312900000000000
  0.0865999999999999  0.9133999999999999  0.6687100000000000
