Ca Zr  C Te
 1.0000000000000000
     3.3029999999999999    0.0000000000000000    0.0000000000000000
    -1.6514999999999993    2.8604819087000011    0.0000000000000000
     0.0000000000000000    0.0000000000000000   25.8299999999999983
 Ca  Zr  C   Te
   3   6   3   6
Direct
  0.0000000000000000  0.0000000000000000  0.0000000000000000
  0.9979800000000000  0.0020200000000000  0.3131100000000000
  0.0020200000000000  0.9979800000000000  0.6868900000000001
  0.6679699999999998  0.3320300000000000  0.8588600000000000
  0.3320299999999999  0.6679700000000000  0.1411400000000000
  0.9986100000000000  0.0013900000000000  0.1945100000000000
  0.6666800000000001  0.3333200000000000  0.4730100000000000
  0.3333200000000000  0.6666800000000001  0.5269900000000000
  0.0013900000000001  0.9986100000000001  0.8054900000000000
  0.0000000000000000  0.0000000000000000  0.5000000000000000
  0.3346500000000000  0.6653500000000000  0.8326500000000001
  0.6653500000000000  0.3346500000000000  0.1673500000000001
  0.6687100000000000  0.3312900000000000  0.7274000000000000
  0.3312900000000000  0.6687100000000000  0.2726000000000000
  0.6663500000000000  0.3336500000000000  0.0642100000000000
  0.6681999999999999  0.3318000000000000  0.6020400000000000
  0.3318000000000000  0.6682000000000000  0.3979600000000000
  0.3336499999999999  0.6663500000000000  0.9357900000000000
