Mn Os Se  N 
 1.0000000000000000
     3.3121000000000000    0.0000000000000000    0.0000000000000000
    -1.6560499999999994    2.8683627398744393    0.0000000000000000
     0.0000000000000000    0.0000000000000000    9.0113000000000003
 Mn  Os  Se  N  
   2   2   2   1
Direct
  0.6666700000000001  0.3333300000000000  0.5760100000000000
  0.3333300000000001  0.6666700000000000  0.4239900000000000
  0.6666200000000000  0.3333100000000000  0.8938900000000000
  0.3333800000000000  0.6666900000000000  0.1061100000000000
  0.6666900000000002  0.3333400000000000  0.2874300000000000
  0.3333100000000000  0.6666600000000000  0.7125700000000000
  0.0000000000000000  0.0000000000000000  0.0000000000000000
