Cu  S In 
 1.0000000000000000
     3.2709999999999999    0.0000000000000000    0.0000000000000000
    -1.6354999999999993    2.8327690957788989    0.0000000000000000
     0.0000000000000000    0.0000000000000000   25.4780000000000015
 Cu  S   In 
   6   6   3
Direct
  0.9771000000000000  0.0229000000000000  0.5783400000000000
  0.0229000000000000  0.9771000000000000  0.4216600000000000
  0.6437600000000000  0.3562400000000000  0.9116699999999999
  0.6892200000000001  0.3107800000000000  0.7549800000000000
  0.3107799999999999  0.6892199999999999  0.2450200000000000
  0.3562399999999999  0.6437599999999999  0.0883300000000000
  0.9851200000000000  0.0148800000000000  0.8218700000000000
  0.0148800000000000  0.9851200000000000  0.1781300000000000
  0.6510500000000000  0.3489499999999999  0.1552700000000000
  0.6818800000000000  0.3181200000000000  0.5114100000000000
  0.3181199999999999  0.6818799999999999  0.4885900000000000
  0.3489499999999999  0.6510499999999999  0.8447300000000000
  0.0000000000000000  0.0000000000000000  0.0000000000000000
  0.6665400000000000  0.3334600000000000  0.3333400000000000
  0.3334600000000000  0.6665400000000000  0.6666599999999999
