Ag Cu  N Se 
 1.0000000000000000
     3.3029999999999999    0.0000000000000000    0.0000000000000000
    -1.6514999999999991    2.8604819087000011    0.0000000000000000
     0.0000000000000000    0.0000000000000000   25.8299999999999983
 Ag  Cu  N   Se 
   3   6   3   6
Direct
  0.0000000000000000  0.0000000000000000  0.0000000000000000
  0.6666700000000000  0.3333300000000000  0.3333300000000001
  0.3333300000000000  0.6666700000000000  0.6666700000000001
  0.0000000000000000  0.0000000000000000  0.8746900000000000
  0.0000000000000000  0.0000000000000000  0.1253100000000000
  0.6666700000000000  0.3333300000000000  0.2079700000000000
  0.6666600000000000  0.3333400000000000  0.4586700000000000
  0.3333400000000000  0.6666600000000000  0.5413300000000000
  0.3333300000000000  0.6666700000000000  0.7920300000000000
  0.0000000000000000  0.0000000000000000  0.5000000000000000
  0.6666800000000001  0.3333200000000000  0.8334800000000001
  0.3333200000000000  0.6666800000000001  0.1665200000000000
  0.9999899999999998  0.0000100000000000  0.7329700000000000
  0.0000100000000001  0.9999900000000002  0.2670300000000000
  0.6666700000000000  0.3333300000000000  0.0663000000000000
  0.6666700000000000  0.3333300000000000  0.6003700000000000
  0.3333300000000000  0.6666700000000000  0.3996300000000000
  0.3333300000000000  0.6666700000000000  0.9337000000000000
