Ag  S Sn 
 1.0000000000000000
     3.2690000000000001    0.0000000000000000    0.0000000000000000
    -1.6344999999999994    2.8310370449713305    0.0000000000000000
     0.0000000000000000    0.0000000000000000    8.5470000000000006
 Ag  S   Sn 
   2   2   1
Direct
  0.6623899999999998  0.3312000000000000  0.7699700000000000
  0.3376100000000001  0.6688000000000001  0.2300300000000000
  0.6258399999999997  0.3129200000000000  0.5059600000000000
  0.3741600000000000  0.6870800000000000  0.4940400000000000
  0.0000000000000000  0.0000000000000000  0.0000000000000000
