Cd  S Si 
 1.0000000000000000
     3.2690000000000001    0.0000000000000000    0.0000000000000000
    -1.6344999999999994    2.8310370449713305    0.0000000000000000
     0.0000000000000000    0.0000000000000000    8.5470000000000006
 Cd  S   Si 
   2   2   1
Direct
  0.0001000000000000  0.5000500000000000  0.7555700000000000
  0.9998999999999999  0.4999500000000001  0.2444300000000000
  0.6375000000000000  0.3187500000000000  0.5000000000000000
  0.3625000000000000  0.6812500000000000  0.5000000000000000
  0.0000000000000000  0.0000000000000000  0.0000000000000000
