Nb Te  P 
 1.0000000000000000
     3.2709999999999999    0.0000000000000000    0.0000000000000000
    -1.6354999999999993    2.8327690957788989    0.0000000000000000
     0.0000000000000000    0.0000000000000000   25.4780000000000015
 Nb  Te  P  
   6   6   3
Direct
  0.9999999999999997  0.9999999999999998  0.6342600000000000
  0.0000000000000000  0.0000000000000000  0.3657399999999999
  0.6666700000000000  0.3333300000000000  0.9675999999999999
  0.6666700000000000  0.3333300000000000  0.6990700000000000
  0.3333300000000000  0.6666700000000000  0.3009300000000000
  0.3333300000000000  0.6666700000000000  0.0324000000000000
  0.0000000000000000  0.0000000000000000  0.7743000000000000
  0.9999999999999997  0.9999999999999998  0.2257000000000000
  0.6666700000000000  0.3333300000000000  0.1076300000000000
  0.6666700000000000  0.3333300000000000  0.5590300000000000
  0.3333300000000000  0.6666700000000000  0.4409699999999999
  0.3333300000000000  0.6666700000000000  0.8923699999999999
  0.0000000000000000  0.0000000000000000  0.0000000000000000
  0.6666700000000000  0.3333300000000000  0.3333300000000000
  0.3333300000000000  0.6666700000000000  0.6666699999999999
