Zn Se As 
 1.0000000000000000
     3.2690000000000001    0.0000000000000000    0.0000000000000000
    -1.6344999999999994    2.8310370449713305    0.0000000000000000
     0.0000000000000000    0.0000000000000000    8.5470000000000006
 Zn  Se  As 
   2   2   1
Direct
  0.8012699999999999  0.4006300000000000  0.7694100000000000
  0.1987300000000000  0.5993700000000001  0.2305900000000000
  0.6171199999999999  0.3085600000000000  0.4458400000000000
  0.3828799999999999  0.6914400000000001  0.5541600000000000
  0.0000000000000000  0.0000000000000000  0.0000000000000000
