Cr Se  C 
 1.0000000000000000
     3.3121000000000000    0.0000000000000000    0.0000000000000000
    -1.6560499999999991    2.8683627398744393    0.0000000000000000
     0.0000000000000000    0.0000000000000000    9.0113000000000003
 Cr  Se  C  
   4   2   1
Direct
  0.6666600000000003  0.3333300000000000  0.5708800000000001
  0.3333400000000000  0.6666700000000000  0.4291200000000000
  0.6666600000000003  0.3333300000000000  0.9069099999999999
  0.3333400000000000  0.6666700000000000  0.0930900000000000
  0.6666600000000003  0.3333300000000000  0.2745000000000000
  0.3333400000000000  0.6666700000000000  0.7255000000000000
  0.0000000000000000  0.0000000000000000  0.0000000000000000
