Fe Nb  C  S 
 1.0000000000000000
     3.4241899999999998    0.0000000000000000    0.0000000000000000
    -1.7121467563529382    2.9654056452381199    0.0000000000000000
    -0.0013218556518384    0.0007631583360039   30.2946999615491634
 Fe  Nb  C   S  
   3   6   3   6
Direct
  0.0000000000000000  0.0000000000000000  0.0000000000000000
  0.6666699999999998  0.3333300000000001  0.3335500000000000
  0.3333300000000000  0.6666700000000000  0.6664500000000000
  0.0000100000000001  0.9999900000000003  0.8564700000000000
  0.9999899999999998  0.0000100000000000  0.1435300000000000
  0.6666699999999998  0.3333300000000001  0.1898100000000000
  0.6666599999999999  0.3333400000000000  0.4768700000000000
  0.3333400000000001  0.6666600000000001  0.5231300000000000
  0.3333300000000000  0.6666700000000000  0.8101899999999997
  0.0000000000000000  0.0000000000000000  0.5000000000000000
  0.6666699999999998  0.3333300000000001  0.8333300000000000
  0.3333300000000000  0.6666700000000000  0.1666700000000000
  0.0000700000000001  0.9999300000000001  0.7036800000000000
  0.9999299999999998  0.0000700000000000  0.2963200000000000
  0.6667400000000000  0.3332600000000001  0.0373000000000000
  0.6665800000000000  0.3334200000000000  0.6291099999999999
  0.3334199999999999  0.6665800000000000  0.3708900000000000
  0.3332600000000000  0.6667400000000000  0.9627000000000000
