Re Te  P 
 1.0000000000000000
     3.2709999999999999    0.0000000000000000    0.0000000000000000
    -1.6354999999999993    2.8327690957788989    0.0000000000000000
     0.0000000000000000    0.0000000000000000   25.4780000000000015
 Re  Te  P  
   6   6   3
Direct
  0.0365399999999999  0.9634599999999998  0.6249000000000000
  0.9634600000000000  0.0365400000000000  0.3751000000000000
  0.6927299999999998  0.3072700000000000  0.9576500000000000
  0.7551200000000000  0.2448800000000000  0.7100400000000000
  0.2448800000000000  0.7551200000000000  0.2899600000000000
  0.3072699999999998  0.6927299999999998  0.0423500000000000
  0.0508500000000000  0.9491500000000000  0.7714000000000000
  0.9491500000000000  0.0508500000000000  0.2286000000000000
  0.7034799999999999  0.2965200000000000  0.1057900000000000
  0.7519000000000000  0.2480999999999999  0.5571100000000000
  0.2481000000000000  0.7519000000000000  0.4428900000000000
  0.2965200000000000  0.7034799999999999  0.8942099999999999
  0.0000000000000000  0.0000000000000000  0.0000000000000000
  0.6161199999999999  0.3838799999999999  0.3365700000000000
  0.3838800000000000  0.6161200000000000  0.6634300000000000
