Co Hf  N Se 
 1.0000000000000000
     3.3029999999999999    0.0000000000000000    0.0000000000000000
    -1.6514999999999993    2.8604819087000011    0.0000000000000000
     0.0000000000000000    0.0000000000000000   25.8299999999999983
 Co  Hf  N   Se 
   3   6   3   6
Direct
  0.0000000000000000  0.0000000000000000  0.0000000000000000
  0.6666600000000000  0.3333400000000000  0.3333300000000001
  0.3333400000000000  0.6666600000000000  0.6666700000000001
  0.9999899999999998  0.0000100000000000  0.8618300000000000
  0.0000100000000001  0.9999900000000002  0.1381700000000000
  0.6666800000000001  0.3333200000000000  0.1951200000000000
  0.6666700000000000  0.3333300000000000  0.4715300000000000
  0.3333300000000000  0.6666700000000000  0.5284700000000000
  0.3333200000000000  0.6666800000000001  0.8048800000000000
  0.0000000000000000  0.0000000000000000  0.5000000000000000
  0.6666600000000000  0.3333400000000000  0.8333700000000001
  0.3333400000000000  0.6666600000000000  0.1666300000000000
  0.0000300000000000  0.9999700000000000  0.7186500000000000
  0.9999699999999998  0.0000300000000000  0.2813500000000000
  0.6666700000000000  0.3333300000000000  0.0519700000000000
  0.6666600000000000  0.3333400000000000  0.6146900000000000
  0.3333400000000000  0.6666600000000000  0.3853100000000000
  0.3333300000000000  0.6666700000000000  0.9480300000000002
