Cu  W  S  C 
 1.0000000000000000
     3.3121000000000000    0.0000000000000000    0.0000000000000000
    -1.6560499999999991    2.8683627398744393    0.0000000000000000
     0.0000000000000000    0.0000000000000000    9.0113000000000003
 Cu  W   S   C  
   2   2   2   1
Direct
  0.6666700000000001  0.3333400000000000  0.5795400000000001
  0.3333300000000001  0.6666600000000000  0.4204600000000000
  0.6666700000000001  0.3333300000000000  0.8959699999999999
  0.3333300000000001  0.6666700000000000  0.1040300000000000
  0.6666600000000003  0.3333300000000000  0.2838900000000000
  0.3333400000000000  0.6666700000000000  0.7161100000000000
  0.0000000000000000  0.0000000000000000  0.0000000000000000
