Pt Te Al 
 1.0000000000000000
     3.2690000000000001    0.0000000000000000    0.0000000000000000
    -1.6344999999999994    2.8310370449713305    0.0000000000000000
     0.0000000000000000    0.0000000000000000    8.5470000000000006
 Pt  Te  Al 
   2   2   1
Direct
  0.6375699999999999  0.3187900000000000  0.8532500000000000
  0.3624300000000000  0.6812100000000000  0.1467500000000000
  0.6204000000000000  0.3102000000000000  0.3750300000000000
  0.3796000000000000  0.6898000000000001  0.6249700000000000
  0.0000000000000000  0.0000000000000000  0.0000000000000000
