Zr Se Si 
 1.0000000000000000
     3.2709999999999999    0.0000000000000000    0.0000000000000000
    -1.6354999999999993    2.8327690957788989    0.0000000000000000
     0.0000000000000000    0.0000000000000000   25.4780000000000015
 Zr  Se  Si 
   6   6   3
Direct
  0.9696800000000000  0.0303200000000000  0.5833000000000000
  0.0303199999999999  0.9696799999999998  0.4167000000000000
  0.7739000000000000  0.2261000000000000  0.9154299999999999
  0.8654099999999998  0.1345900000000000  0.7467800000000000
  0.1345899999999999  0.8654099999999998  0.2532200000000000
  0.2260999999999999  0.7738999999999998  0.0845700000000000
  0.1968600000000000  0.8031399999999999  0.7801900000000001
  0.8031400000000000  0.1968600000000000  0.2198100000000000
  0.5630899999999999  0.4369100000000000  0.1178100000000000
  0.6323299999999999  0.3676700000000000  0.5502000000000000
  0.3676699999999999  0.6323299999999998  0.4498000000000000
  0.4369100000000000  0.5630900000000000  0.8821900000000000
  0.9999999999999997  0.9999999999999998  0.0000000000000000
  0.8086800000000000  0.1913199999999999  0.3241900000000000
  0.1913199999999999  0.8086799999999997  0.6758099999999998
