Cu Hf  C Te
 1.0000000000000000
     3.3029999999999999    0.0000000000000000    0.0000000000000000
    -1.6514999999999993    2.8604819087000011    0.0000000000000000
     0.0000000000000000    0.0000000000000000   25.8299999999999983
 Cu  Hf  C   Te
   3   6   3   6
Direct
  0.0000000000000000  0.0000000000000000  0.0000000000000000
  0.6412300000000000  0.3587700000000000  0.3344200000000000
  0.3587700000000000  0.6412300000000000  0.6655799999999999
  0.0094100000000000  0.9905900000000000  0.8583900000000000
  0.9905899999999999  0.0094100000000000  0.1416100000000000
  0.6585399999999999  0.3414600000000000  0.1963800000000000
  0.6667500000000000  0.3332500000000000  0.4724700000000000
  0.3332500000000000  0.6667500000000000  0.5275300000000001
  0.3414600000000000  0.6585400000000000  0.8036200000000000
  0.0000000000000000  0.0000000000000000  0.5000000000000000
  0.6861300000000000  0.3138700000000000  0.8373900000000000
  0.3138700000000000  0.6861300000000000  0.1626100000000000
  0.0502600000000000  0.9497400000000000  0.7341500000000000
  0.9497400000000000  0.0502600000000000  0.2658500000000000
  0.5015200000000000  0.4984800000000000  0.0689300000000000
  0.6729399999999999  0.3270600000000000  0.5973900000000000
  0.3270600000000000  0.6729400000000000  0.4026100000000000
  0.4984799999999999  0.5015200000000000  0.9310700000000000
