Fe Zn Te  N 
 1.0000000000000000
     3.3121000000000000    0.0000000000000000    0.0000000000000000
    -1.6560499999999994    2.8683627398744393    0.0000000000000000
     0.0000000000000000    0.0000000000000000    9.0113000000000003
 Fe  Zn  Te  N  
   2   2   2   1
Direct
  0.6666600000000003  0.3333300000000000  0.5625300000000000
  0.3333400000000000  0.6666700000000000  0.4374700000000000
  0.6666600000000003  0.3333300000000000  0.9110700000000000
  0.3333400000000000  0.6666700000000000  0.0889300000000000
  0.6666700000000001  0.3333400000000000  0.2844500000000000
  0.3333300000000001  0.6666600000000000  0.7155500000000000
  0.0000000000000000  0.0000000000000000  0.0000000000000000
