Au Se Bi 
 1.0000000000000000
     3.2690000000000001    0.0000000000000000    0.0000000000000000
    -1.6344999999999994    2.8310370449713305    0.0000000000000000
     0.0000000000000000    0.0000000000000000    8.5470000000000006
 Au  Se  Bi 
   2   2   1
Direct
  0.6903100000000000  0.3451500000000000  0.7669400000000000
  0.3096900000000000  0.6548500000000002  0.2330600000000000
  0.6276900000000000  0.3138500000000000  0.4461900000000000
  0.3723099999999999  0.6861500000000001  0.5538100000000000
  0.0000000000000000  0.0000000000000000  0.0000000000000000
