Cr Ru  C  S
 1.0000000000000000
     3.3029999999999999    0.0000000000000000    0.0000000000000000
    -1.6514999999999991    2.8604819087000011    0.0000000000000000
     0.0000000000000000    0.0000000000000000   25.8299999999999983
 Cr  Ru  C   S
   3   6   3   6
Direct
  0.0000000000000000  0.0000000000000000  0.0000000000000000
  0.6666700000000000  0.3333300000000000  0.3333300000000001
  0.3333300000000000  0.6666700000000000  0.6666700000000001
  0.0000000000000000  0.0000000000000000  0.8693300000000000
  0.0000000000000000  0.0000000000000000  0.1306700000000000
  0.6666700000000000  0.3333300000000000  0.2026600000000000
  0.6666700000000000  0.3333300000000000  0.4640100000000000
  0.3333300000000000  0.6666700000000000  0.5359900000000000
  0.3333300000000000  0.6666700000000000  0.7973400000000000
  0.0000000000000000  0.0000000000000000  0.5000000000000000
  0.6666700000000000  0.3333300000000000  0.8333300000000000
  0.3333300000000000  0.6666700000000000  0.1666700000000000
  0.0000000000000000  0.0000000000000000  0.7218500000000001
  0.0000000000000000  0.0000000000000000  0.2781500000000000
  0.6666700000000000  0.3333300000000000  0.0551800000000000
  0.6666700000000000  0.3333300000000000  0.6114800000000000
  0.3333300000000000  0.6666700000000000  0.3885200000000001
  0.3333300000000000  0.6666700000000000  0.9448200000000000
