Cu Ru  N  S 
 1.0000000000000000
     3.3029999999999999    0.0000000000000000    0.0000000000000000
    -1.6514999999999991    2.8604819087000011    0.0000000000000000
     0.0000000000000000    0.0000000000000000   25.8299999999999983
 Cu  Ru  N   S  
   3   6   3   6
Direct
  0.0000000000000000  0.0000000000000000  0.0000000000000000
  0.6666700000000000  0.3333300000000000  0.3333400000000001
  0.3333300000000000  0.6666700000000000  0.6666600000000001
  0.0000100000000001  0.9999900000000002  0.8760500000000001
  0.9999899999999998  0.0000100000000000  0.1239500000000000
  0.6666800000000001  0.3333200000000000  0.2093800000000000
  0.6666600000000000  0.3333400000000000  0.4572800000000001
  0.3333400000000000  0.6666600000000000  0.5427200000000000
  0.3333200000000000  0.6666800000000001  0.7906200000000000
  0.0000000000000000  0.0000000000000000  0.5000000000000000
  0.6666700000000000  0.3333300000000000  0.8334800000000001
  0.3333300000000000  0.6666700000000000  0.1665200000000000
  0.9999899999999998  0.0000100000000000  0.7540600000000000
  0.0000100000000001  0.9999900000000002  0.2459400000000000
  0.6666600000000000  0.3333400000000000  0.0873600000000000
  0.6666700000000000  0.3333300000000000  0.5792800000000000
  0.3333300000000000  0.6666700000000000  0.4207200000000000
  0.3333400000000000  0.6666600000000000  0.9126400000000000
