Zn Os  S  N 
 1.0000000000000000
     3.3121000000000000    0.0000000000000000    0.0000000000000000
    -1.6560499999999994    2.8683627398744393    0.0000000000000000
     0.0000000000000000    0.0000000000000000    9.0113000000000003
 Zn  Os  S   N  
   2   2   2   1
Direct
  0.6666600000000003  0.3333300000000000  0.5813199999999999
  0.3333400000000000  0.6666700000000000  0.4186800000000000
  0.6666600000000003  0.3333300000000000  0.8815600000000000
  0.3333400000000000  0.6666700000000000  0.1184400000000000
  0.6666600000000003  0.3333300000000000  0.2441800000000000
  0.3333400000000000  0.6666700000000000  0.7558200000000000
  0.0000000000000000  0.0000000000000000  0.0000000000000000
