Zn Pt  C Se
 1.0000000000000000
     3.3029999999999999    0.0000000000000000    0.0000000000000000
    -1.6514999999999993    2.8604819087000011    0.0000000000000000
     0.0000000000000000    0.0000000000000000   25.8299999999999983
 Zn  Pt  C   Se
   3   6   3   6
Direct
  0.0000000000000000  0.0000000000000000  0.0000000000000000
  0.6666700000000000  0.3333300000000000  0.3333300000000001
  0.3333300000000000  0.6666700000000000  0.6666700000000001
  0.0000000000000000  0.0000000000000000  0.8752700000000000
  0.0000000000000000  0.0000000000000000  0.1247300000000000
  0.6666700000000000  0.3333300000000000  0.2086000000000000
  0.6666700000000000  0.3333300000000000  0.4580700000000000
  0.3333300000000000  0.6666700000000000  0.5419300000000000
  0.3333300000000000  0.6666700000000000  0.7914000000000000
  0.0000000000000000  0.0000000000000000  0.5000000000000000
  0.6666700000000000  0.3333300000000000  0.8333300000000000
  0.3333300000000000  0.6666700000000000  0.1666700000000000
  0.0000000000000000  0.0000000000000000  0.7365600000000000
  0.0000000000000000  0.0000000000000000  0.2634400000000000
  0.6666700000000000  0.3333300000000000  0.0698900000000000
  0.6666700000000000  0.3333300000000000  0.5967700000000000
  0.3333300000000000  0.6666700000000000  0.4032300000000000
  0.3333300000000000  0.6666700000000000  0.9301100000000000
