Mg Hf  N  S 
 1.0000000000000000
     3.3029999999999999    0.0000000000000000    0.0000000000000000
    -1.6514999999999991    2.8604819087000011    0.0000000000000000
     0.0000000000000000    0.0000000000000000   25.8299999999999983
 Mg  Hf  N   S  
   3   6   3   6
Direct
  0.0000000000000000  0.0000000000000000  0.0000000000000000
  0.6658300000000000  0.3341700000000000  0.3481900000000001
  0.3341700000000000  0.6658300000000000  0.6518100000000000
  0.2177300000000000  0.7822700000000000  0.8646000000000000
  0.7822699999999998  0.2177300000000000  0.1354000000000000
  0.4871700000000000  0.5128300000000000  0.2058200000000000
  0.6666600000000000  0.3333400000000000  0.4689500000000000
  0.3333400000000000  0.6666600000000000  0.5310500000000000
  0.5128300000000000  0.4871700000000000  0.7941800000000000
  0.0000000000000000  0.0000000000000000  0.5000000000000000
  0.8321100000000000  0.1678900000000000  0.8108600000000000
  0.1678900000000001  0.8321100000000001  0.1891400000000000
  0.0349800000000000  0.9650200000000000  0.7356200000000001
  0.9650200000000000  0.0349800000000000  0.2643800000000000
  0.4644400000000000  0.5355600000000000  0.1023900000000000
  0.6670700000000001  0.3329300000000000  0.5833500000000000
  0.3329300000000000  0.6670700000000001  0.4166500000000000
  0.5355600000000000  0.4644400000000000  0.8976100000000000
