Co  Y  N  S 
 1.0000000000000000
     3.3029999999999999    0.0000000000000000    0.0000000000000000
    -1.6514999999999991    2.8604819087000011    0.0000000000000000
     0.0000000000000000    0.0000000000000000   25.8299999999999983
 Co  Y   N   S  
   3   6   3   6
Direct
  0.0000000000000000  0.0000000000000000  0.0000000000000000
  0.6666600000000000  0.3333400000000000  0.3332000000000000
  0.3333400000000000  0.6666600000000000  0.6667999999999999
  0.9999899999999998  0.0000100000000000  0.8641100000000000
  0.0000100000000001  0.9999900000000002  0.1358900000000000
  0.6666999999999998  0.3333000000000000  0.1975500000000000
  0.6666600000000000  0.3333400000000000  0.4691700000000000
  0.3333400000000000  0.6666600000000000  0.5308300000000000
  0.3332999999999999  0.6667000000000000  0.8024500000000000
  0.0000000000000000  0.0000000000000000  0.5000000000000000
  0.6666499999999999  0.3333500000000000  0.8333500000000000
  0.3333499999999999  0.6666500000000000  0.1666500000000000
  0.0000900000000000  0.9999100000000000  0.7142500000000002
  0.9999100000000000  0.0000900000000000  0.2857500000000000
  0.6667100000000000  0.3332900000000000  0.0474200000000000
  0.6665999999999997  0.3334000000000000  0.6193500000000000
  0.3334000000000000  0.6666000000000000  0.3806500000000000
  0.3332900000000000  0.6667100000000000  0.9525800000000000
