 Y  S Al 
 1.0000000000000000
     3.2690000000000001    0.0000000000000000    0.0000000000000000
    -1.6344999999999994    2.8310370449713305    0.0000000000000000
     0.0000000000000000    0.0000000000000000    8.5470000000000006
 Y   S   Al 
   2   2   1
Direct
  0.6666000000000000  0.3333000000000000  0.7170700000000000
  0.3334000000000000  0.6667000000000000  0.2829300000000000
  0.6666699999999999  0.3333300000000000  0.3603500000000000
  0.3333299999999999  0.6666700000000000  0.6396500000000001
  0.0000000000000000  0.0000000000000000  0.0000000000000000
