Ru Se Si 
 1.0000000000000000
     3.2690000000000001    0.0000000000000000    0.0000000000000000
    -1.6344999999999994    2.8310370449713305    0.0000000000000000
     0.0000000000000000    0.0000000000000000    8.5470000000000006
 Ru  Se  Si 
   2   2   1
Direct
  0.6660800000000000  0.3330400000000001  0.8699200000000000
  0.3339200000000000  0.6669600000000000  0.1300800000000000
  0.3558900000000000  0.1779400000000000  0.3181600000000000
  0.6441100000000000  0.8220600000000000  0.6818400000000000
  0.0000000000000000  0.0000000000000000  0.0000000000000000
