Ru As Se 
 1.0000000000000000
     3.3435999999999999    0.0000000000000000    0.0000000000000000
    -1.6717999999999993    2.8956425400936490    0.0000000000000000
     0.0000000000000000    0.0000000000000000   11.5808999999999997
 Ru  As  Se 
   4   2   2
Direct
  0.3120799999999999  0.6879199999999999  0.3981500000000000
  0.6879199999999999  0.3120800000000000  0.6018500000000000
  0.6879199999999999  0.3120800000000000  0.8981600000000000
  0.3120799999999999  0.6879199999999999  0.1018400000000000
  0.0000000000000000  0.0000000000000000  0.0000000000000000
  0.0000000000000000  0.0000000000000000  0.5000000000000000
  0.1565199999999999  0.8434799999999998  0.7500000000000000
  0.8434800000000000  0.1565200000000000  0.2500000000000000
