 V Cu  C Te
 1.0000000000000000
     3.3029999999999999    0.0000000000000000    0.0000000000000000
    -1.6514999999999993    2.8604819087000011    0.0000000000000000
     0.0000000000000000    0.0000000000000000   25.8299999999999983
 V   Cu  C   Te
   3   6   3   6
Direct
  0.0000000000000000  0.0000000000000000  0.0000000000000000
  0.9005900000000000  0.0994100000000000  0.3167100000000000
  0.0994100000000000  0.9005900000000000  0.6832900000000000
  0.0555000000000000  0.9445000000000000  0.8676500000000000
  0.9444999999999998  0.0555000000000000  0.1323500000000000
  0.6569600000000000  0.3430400000000000  0.1967400000000000
  0.7186900000000001  0.2813100000000000  0.4556400000000000
  0.2813099999999999  0.7186900000000001  0.5443600000000000
  0.3430400000000000  0.6569600000000000  0.8032600000000000
  0.0000000000000000  0.0000000000000000  0.5000000000000000
  0.8375400000000000  0.1624600000000000  0.8096000000000000
  0.1624599999999999  0.8375400000000000  0.1904000000000000
  0.7827000000000000  0.2173000000000000  0.7310700000000000
  0.2172999999999999  0.7827000000000000  0.2689300000000000
  0.6664300000000000  0.3335700000000000  0.0593800000000000
  0.5677200000000000  0.4322800000000000  0.6203100000000000
  0.4322799999999999  0.5677200000000000  0.3796900000000000
  0.3335699999999999  0.6664300000000000  0.9406200000000000
