 V Re  C Se
 1.0000000000000000
     3.3029999999999999    0.0000000000000000    0.0000000000000000
    -1.6514999999999993    2.8604819087000011    0.0000000000000000
     0.0000000000000000    0.0000000000000000   25.8299999999999983
 V   Re  C   Se
   3   6   3   6
Direct
  0.0000000000000000  0.0000000000000000  0.0000000000000000
  0.5468900000000000  0.4531100000000000  0.3282800000000001
  0.4531100000000000  0.5468900000000000  0.6717200000000002
  0.0002300000000000  0.9997700000000000  0.9105500000000000
  0.9997700000000000  0.0002300000000000  0.0894500000000000
  0.4595099999999999  0.5404900000000000  0.1759500000000000
  0.7148099999999999  0.2851900000000000  0.4633300000000000
  0.2851899999999999  0.7148099999999999  0.5366700000000000
  0.5404900000000001  0.4595100000000000  0.8240499999999999
  0.0000000000000000  0.0000000000000000  0.5000000000000000
  0.8737799999999999  0.1262200000000000  0.8119900000000001
  0.1262200000000001  0.8737800000000000  0.1880100000000000
  0.1150800000000000  0.8849200000000002  0.7001900000000001
  0.8849200000000000  0.1150800000000000  0.2998100000000000
  0.6695300000000000  0.3304700000000000  0.0489500000000000
  0.6504200000000000  0.3495800000000000  0.5886300000000000
  0.3495800000000000  0.6504200000000000  0.4113700000000001
  0.3304700000000000  0.6695300000000000  0.9510500000000000
