Na  W  C Te
 1.0000000000000000
     3.3029999999999999    0.0000000000000000    0.0000000000000000
    -1.6514999999999993    2.8604819087000011    0.0000000000000000
     0.0000000000000000    0.0000000000000000   25.8299999999999983
 Na  W   C   Te
   3   6   3   6
Direct
  0.0000000000000000  0.0000000000000000  0.0000000000000000
  0.6666600000000000  0.3333400000000000  0.3353600000000000
  0.3333400000000000  0.6666600000000000  0.6646400000000000
  0.0000000000000000  0.0000000000000000  0.8675200000000000
  0.0000000000000000  0.0000000000000000  0.1324800000000000
  0.6666700000000000  0.3333300000000000  0.1944500000000000
  0.6666700000000000  0.3333300000000000  0.4721500000000000
  0.3333300000000000  0.6666700000000000  0.5278500000000000
  0.3333300000000000  0.6666700000000000  0.8055500000000000
  0.0000000000000000  0.0000000000000000  0.5000000000000000
  0.6666600000000000  0.3333400000000000  0.8164400000000001
  0.3333400000000000  0.6666600000000000  0.1835600000000000
  0.0000100000000001  0.9999900000000002  0.7334500000000000
  0.9999899999999998  0.0000100000000000  0.2665500000000000
  0.6666700000000000  0.3333300000000000  0.0751300000000000
  0.6666700000000000  0.3333300000000000  0.5934199999999999
  0.3333300000000000  0.6666700000000000  0.4065800000000000
  0.3333300000000000  0.6666700000000000  0.9248700000000000
