Re Se  B 
 1.0000000000000000
     3.2709999999999999    0.0000000000000000    0.0000000000000000
    -1.6354999999999993    2.8327690957788989    0.0000000000000000
     0.0000000000000000    0.0000000000000000   25.4780000000000015
 Re  Se  B  
   6   6   3
Direct
  0.9999500000000000  0.0000500000000000  0.6320700000000000
  0.0000500000000000  0.9999500000000000  0.3679300000000000
  0.6667400000000000  0.3332600000000000  0.9654299999999999
  0.6667100000000000  0.3332900000000000  0.7012100000000000
  0.3332900000000000  0.6667100000000000  0.2987900000000000
  0.3332600000000000  0.6667400000000000  0.0345700000000000
  0.9999200000000000  0.0000800000000000  0.7690900000000001
  0.0000799999999998  0.9999199999999998  0.2309100000000000
  0.6668200000000000  0.3331800000000000  0.1024100000000000
  0.6667600000000000  0.3332399999999999  0.5642700000000000
  0.3332399999999999  0.6667599999999999  0.4357300000000000
  0.3331799999999999  0.6668199999999999  0.8975899999999999
  0.0000000000000000  0.0000000000000000  0.0000000000000000
  0.6666700000000000  0.3333300000000000  0.3333000000000000
  0.3333300000000000  0.6666700000000000  0.6667000000000000
